********************************************************************************
Field Output Report, written Sun Aug  6 20:13:14 2023

Source 1
---------

   ODB: D:/temp/rectangle.odb
   Step: Step-1
   Frame: Increment      1: Step Time =    1.000

Loc 1 : Nodal values from source 1

Output sorted by column "Node Label".

Field Output reported at nodes for part: PART-1-1
   Computation algorithm: EXTRAPOLATE_COMPUTE_AVERAGE
   Averaged at nodes
   Averaging regions: ODB_REGIONS

      Node Label         S.Mises           S.S11           S.S22           S.S12
                          @Loc 1          @Loc 1          @Loc 1          @Loc 1
---------------------------------------------------------------------------------
               1         174.289         174.747         45.7919         43.7617
               2         112.394         106.680        -9.69921        -4.80811
               3         88.9028         89.1646     575.274E-03     334.301E-03
               4         81.8978         81.5450    -699.604E-03    -203.631E-03
               5         76.1782         76.1660    -24.2526E-03     21.9077E-03
               6         72.4966         72.4450    -102.894E-03    -33.8714E-03
               7         69.6541         69.6311    -46.0210E-03    -17.1870E-03
               8         67.4520         67.4330    -38.0132E-03    -17.9458E-03
               9         65.6748         65.6614    -26.7623E-03    -14.4843E-03
              10         64.2141         64.2037    -20.6905E-03    -12.6199E-03
              11         62.9918         62.9838    -16.0896E-03    -10.8615E-03
              12         61.9555         61.9491    -12.8274E-03    -9.49923E-03
              13         61.0668         61.0616    -10.3675E-03    -8.36935E-03
              14         60.2972         60.2930    -8.48387E-03    -7.43996E-03
              15          59.625         59.6215    -7.00558E-03    -6.66197E-03
              16         59.0330         59.0301    -5.82440E-03    -6.00430E-03
              17         58.5075         58.5051    -4.86456E-03    -5.44170E-03
              18         58.0376         58.0356    -4.07302E-03    -4.95524E-03
              19         57.6140         57.6123    -3.41152E-03    -4.53016E-03
              20         57.2291         57.2277    -2.85196E-03    -4.15503E-03
              21         56.8764         56.8753    -2.37339E-03    -3.82077E-03
              22         56.5505         56.5495    -1.95990E-03    -3.52020E-03
              23         56.2464         56.2456    -1.59926E-03    -3.24756E-03
              24         55.9599         55.9593    -1.28193E-03    -2.99816E-03
              25         55.6875         55.6870    -1.00042E-03    -2.76816E-03
              26         55.4258         55.4255    -748.746E-06    -2.55442E-03
              27         55.1719         55.1717    -522.107E-06    -2.35429E-03
              28         54.9232         54.9230    -316.617E-06    -2.16556E-03
              29         54.6771         54.6771    -129.096E-06    -1.98635E-03
              30         54.4316         54.4316     43.0701E-06    -1.81509E-03
              31         54.1846         54.1847     202.046E-06    -1.65037E-03
              32         53.9342         53.9343     349.631E-06    -1.49102E-03
              33         53.6786         53.6789     487.335E-06    -1.33598E-03
              34         53.4164         53.4167     616.417E-06    -1.18432E-03
              35         53.1458         53.1461     737.950E-06    -1.03524E-03
              36         52.8655         52.8659     852.827E-06    -887.999E-06
              37         52.5741         52.5745     961.814E-06    -741.920E-06
              38         52.2702         52.2708     1.06555E-03    -596.413E-06
              39         51.9528         51.9534     1.16457E-03    -450.902E-06
              40         51.6205         51.6211     1.25934E-03    -304.911E-06
              41         51.2722         51.2728     1.35022E-03    -157.952E-06
              42         50.9068         50.9075     1.43755E-03    -9.54047E-06
              43         50.5233         50.5240     1.52154E-03     140.691E-06
              44         50.1206         50.1214     1.60244E-03     293.190E-06
              45         49.6978         49.6986     1.68035E-03     448.296E-06
              46         49.2538         49.2547     1.75541E-03     606.406E-06
              47         48.7879         48.7888     1.82765E-03     767.851E-06
              48         48.2990         48.3000     1.89713E-03     932.967E-06
              49         47.7864         47.7874     1.96380E-03     1.10208E-03
              50         47.2492         47.2502     2.02763E-03     1.27553E-03
              51         46.6866         46.6877     2.08850E-03     1.45357E-03
              52         46.0979         46.0990     2.14631E-03     1.63655E-03
              53         45.4823         45.4834     2.20088E-03     1.82469E-03
              54         44.8392         44.8403     2.25201E-03     2.01831E-03
              55         44.1678         44.1690     2.29944E-03     2.21764E-03
              56         43.4677         43.4689     2.34292E-03     2.42294E-03
              57         42.7382         42.7394     2.38208E-03     2.63444E-03
              58         41.9788         41.9800     2.41656E-03     2.85232E-03
              59         41.1891         41.1904     2.44595E-03     3.07683E-03
              60         40.3687         40.3700     2.46975E-03     3.30803E-03
              61         39.5173         39.5186     2.48747E-03     3.54615E-03
              62         38.6346         38.6358     2.49846E-03     3.79127E-03
              63         37.7204         37.7217     2.50214E-03     4.04339E-03
              64         36.7747         36.7759     2.49773E-03     4.30261E-03
              65         35.7974         35.7987     2.48447E-03     4.56884E-03
              66         34.7887         34.7900     2.46147E-03     4.84195E-03
              67         33.7489         33.7501     2.42775E-03     5.12181E-03
              68         32.6782         32.6794     2.38229E-03     5.40814E-03
              69         31.5772         31.5784     2.32389E-03     5.70052E-03
              70         30.4466         30.4477     2.25130E-03     5.99845E-03
              71         29.2872         29.2883     2.16309E-03     6.30125E-03
              72         28.1000         28.1010     2.05775E-03     6.60814E-03
              73         26.8863         26.8873     1.93360E-03     6.91799E-03
              74         25.6476         25.6485     1.78875E-03     7.22954E-03
              75         24.3856         24.3864     1.62122E-03     7.54121E-03
              76         23.1023         23.1030     1.42877E-03     7.85094E-03
              77         21.8000         21.8006     1.20897E-03     8.15643E-03
              78         20.4814         20.4819     959.173E-06     8.45463E-03
              79         19.1497         19.1500     676.450E-06     8.74211E-03
              80         17.8082         17.8083     357.644E-06     9.01442E-03
              81         16.4608         16.4608    -693.173E-09     9.26629E-03
              82         15.1121         15.1119    -402.348E-06     9.49142E-03
              83         13.7671         13.7666    -851.345E-06     9.68167E-03
              84         12.4313         12.4306    -1.35206E-03     9.82761E-03
              85         11.1111         11.1102    -1.90906E-03     9.91705E-03
              86         9.81358         9.81230    -2.52720E-03     9.93530E-03
              87         8.54661         8.54499    -3.21130E-03     9.86382E-03
              88         7.31903         7.31702    -3.96604E-03     9.67941E-03
              89         6.14064         6.13822    -4.79554E-03     9.35237E-03
              90         5.02237         5.01949    -5.70250E-03     8.84530E-03
              91         3.97631         3.97294    -6.68749E-03     8.10833E-03
              92         3.01583         3.01192    -7.74525E-03     7.08036E-03
              93         2.15559         2.15112    -8.86654E-03     5.66333E-03
              94         1.41159         1.40654    -10.0129E-03     3.78721E-03
              95     800.943E-03     795.296E-03    -11.1741E-03     1.10218E-03
              96     342.062E-03     335.836E-03    -12.0981E-03    -1.92183E-03
              97     55.0481E-03     45.1324E-03    -13.2336E-03    -8.51427E-03
              98     50.2835E-03    -52.1495E-03    -11.3040E-03    -8.91569E-03
              99     102.185E-03     36.3582E-03    -16.9377E-03    -50.9516E-03
             100     542.863E-03     511.464E-03     146.131E-03    -55.3385E-03
             101         1.42760         1.12688    -262.206E-03    -366.941E-03
             102         87.5586         89.1068         24.2253         20.6487
             103         104.621         102.397         12.7439         22.7949
             104         93.7026         92.6954         1.91510         10.8442
             105         84.4861         84.3860         1.37679         6.60717
             106         79.1288         79.0389     610.870E-03         4.54831
             107         75.0400         75.0129     397.249E-03         3.35176
             108         71.9665         71.9550     256.845E-03         2.58599
             109         69.5331         69.5322     181.649E-03         2.05991
             110         67.5672         67.5710     133.155E-03         1.68072
             111         65.9442         65.9503     101.179E-03         1.39689
             112         64.5830         64.5901     78.8290E-03         1.17827
             113         63.4261         63.4334     62.6674E-03         1.00606
             114         62.4318         62.4390     50.6003E-03     868.011E-03
             115         61.5688         61.5756     41.3554E-03     755.805E-03
             116         60.8134         60.8195     34.1126E-03     663.624E-03
             117         60.1466         60.1522     28.3279E-03     587.283E-03
             118         59.5537         59.5586     23.6287E-03     523.696E-03
             119         59.0224         59.0267     19.7533E-03     470.544E-03
             120         58.5429         58.5465     16.5140E-03     426.052E-03
             121         58.1068         58.1098     13.7728E-03     388.838E-03
             122         57.7071         57.7095     11.4271E-03     357.813E-03
             123         57.3379         57.3397     9.39907E-03     332.109E-03
             124         56.9939         56.9952     7.62893E-03     311.022E-03
             125         56.6707         56.6715     6.07012E-03     293.980E-03
             126         56.3643         56.3646     4.68597E-03     280.513E-03
             127         56.0713         56.0711     3.44732E-03     270.229E-03
             128         55.7886         55.7879     2.33073E-03     262.802E-03
             129         55.5132         55.5121     1.31720E-03     257.956E-03
             130         55.2428         55.2412     391.238E-06     255.460E-03
             131         54.9750         54.9730    -459.934E-06     255.113E-03
             132         54.7077         54.7052    -1.24688E-03     256.748E-03
             133         54.4389         54.4360    -1.97839E-03     260.216E-03
             134         54.1669         54.1636    -2.66182E-03     265.392E-03
             135         53.8900         53.8863    -3.30336E-03     272.165E-03
             136         53.6066         53.6025    -3.90821E-03     280.439E-03
             137         53.3153         53.3107    -4.48077E-03     290.131E-03
             138         53.0146         53.0095    -5.02475E-03     301.164E-03
             139         52.7033         52.6977    -5.54328E-03     313.473E-03
             140         52.3801         52.3740    -6.03901E-03     326.999E-03
             141         52.0439         52.0372    -6.51416E-03     341.688E-03
             142         51.6934         51.6862    -6.97058E-03     357.491E-03
             143         51.3277         51.3199    -7.40977E-03     374.366E-03
             144         50.9456         50.9372    -7.83297E-03     392.270E-03
             145         50.5463         50.5371    -8.24114E-03     411.166E-03
             146         50.1287         50.1188    -8.63500E-03     431.018E-03
             147         49.6919         49.6812    -9.01505E-03     451.790E-03
             148         49.2351         49.2236    -9.38159E-03     473.449E-03
             149         48.7574         48.7450    -9.73470E-03     495.963E-03
             150         48.2580         48.2446    -10.0743E-03     519.297E-03
             151         47.7362         47.7217    -10.4001E-03     543.419E-03
             152         47.1911         47.1755    -10.7116E-03     568.293E-03
             153         46.6222         46.6053    -11.0081E-03     593.885E-03
             154         46.0287         46.0105    -11.2888E-03     620.156E-03
             155         45.4101         45.3905    -11.5528E-03     647.067E-03
             156         44.7657         44.7446    -11.7986E-03     674.574E-03
             157         44.0951         44.0723    -12.0249E-03     702.634E-03
             158         43.3978         43.3732    -12.2300E-03     731.195E-03
             159         42.6733         42.6467    -12.4119E-03     760.204E-03
             160         41.9212         41.8926    -12.5686E-03     789.604E-03
             161         41.1414         41.1106    -12.6977E-03     819.329E-03
             162         40.3335         40.3003    -12.7963E-03     849.311E-03
             163         39.4974         39.4616    -12.8616E-03     879.471E-03
             164         38.6330         38.5944    -12.8902E-03     909.727E-03
             165         37.7403         37.6988    -12.8784E-03     939.985E-03
             166         36.8195         36.7747    -12.8221E-03     970.145E-03
             167         35.8707         35.8225    -12.7169E-03         1.00009
             168         34.8943         34.8424    -12.5578E-03         1.02971
             169         33.8907         33.8349    -12.3393E-03         1.05886
             170         32.8606         32.8005    -12.0555E-03         1.08739
             171         31.8046         31.7401    -11.6998E-03         1.11514
             172         30.7238         30.6544    -11.2649E-03         1.14193
             173         29.6191         29.5446    -10.7428E-03         1.16756
             174         28.4920         28.4120    -10.1247E-03         1.19182
             175         27.3438         27.2581    -9.40108E-03         1.21447
             176         26.1765         26.0846    -8.56121E-03         1.23524
             177         24.9919         24.8936    -7.59344E-03         1.25385
             178         23.7924         23.6872    -6.48490E-03         1.26999
             179         22.5805         22.4682    -5.22141E-03         1.28330
             180         21.3592         21.2395    -3.78741E-03         1.29341
             181         20.1317         20.0043    -2.16574E-03         1.29989
             182         18.9018         18.7665    -337.565E-06         1.30229
             183         17.6734         17.5302     1.71780E-03         1.30011
             184         16.4510         16.2999     4.02299E-03         1.29278
             185         15.2397         15.0810     6.60270E-03         1.27972
             186         14.0449         13.8790     9.48369E-03         1.26026
             187         12.8725         12.7002     12.6947E-03         1.23368
             188         11.7290         11.5517     16.2659E-03         1.19921
             189         10.6213         10.4410     20.2285E-03         1.15599
             190         9.55705         9.37638     24.6130E-03         1.10314
             191         8.54410         8.36685     29.4468E-03         1.03970
             192         7.59090         7.42204     34.7491E-03     964.693E-03
             193         6.70636         6.55216     40.5228E-03     877.158E-03
             194         5.89989         5.76790     46.7387E-03     776.212E-03
             195         5.18165         5.07996     53.3140E-03     661.176E-03
             196         4.56293         4.49869     60.0358E-03     531.854E-03
             197         4.05595         4.03257     66.6635E-03     388.777E-03
             198         3.67500         3.68785     71.8877E-03     234.733E-03
             199         3.42141         3.45771     78.7592E-03     73.2046E-03
             200         3.30557         3.33628     67.7878E-03    -72.1595E-03
             201         3.09154         3.13558     145.482E-03    -165.408E-03
             202         3.12855         2.82710    -476.766E-03     129.644E-03
             203         82.5184         84.3323         26.1899         20.1607
             204         86.3443         85.5949         17.4481         20.9501
             205         86.1263         85.5850         8.52154         15.8063
             206         82.9148         82.6186         4.69559         11.7598
             207         79.0489         78.9333         2.70509         8.64952
             208         75.7460         75.7244         1.73492         6.62432
             209         72.9796         72.9991         1.17574         5.21529
             210         70.6814         70.7204     839.440E-03         4.20859
             211         68.7570         68.8040     622.473E-03         3.46336
             212         67.1314         67.1803     475.650E-03         2.89615
             213         65.7447         65.7924     372.180E-03         2.45428
             214         64.5509         64.5958     296.732E-03         2.10342
             215         63.5144         63.5558     240.135E-03         1.82048
             216         62.6074         62.6449     196.628E-03         1.58945
             217         61.8078         61.8414     162.470E-03         1.39893
             218         61.0979         61.1276     135.153E-03         1.24060
             219         60.4635         60.4894     112.946E-03         1.10831
             220         59.8926         59.9149     94.6269E-03     997.359E-03
             221         59.3754         59.3944     79.3156E-03     904.153E-03
             222         58.9037         58.9195     66.3639E-03     825.878E-03
             223         58.4705         58.4833     55.2872E-03     760.305E-03
             224         58.0697         58.0797     45.7180E-03     705.651E-03
             225         57.6962         57.7035     37.3732E-03     660.474E-03
             226         57.3453         57.3502     30.0324E-03     623.594E-03
             227         57.0132         57.0157     23.5217E-03     594.038E-03
             228         56.6962         56.6965     17.7028E-03     571.000E-03
             229         56.3913         56.3894     12.4645E-03     553.804E-03
             230         56.0955         56.0915     7.71661E-03     541.879E-03
             231         55.8063         55.8003     3.38555E-03     534.744E-03
             232         55.5214         55.5135    -589.270E-06     531.985E-03
             233         55.2387         55.2288    -4.25802E-03     533.250E-03
             234         54.9561         54.9444    -7.66242E-03     538.235E-03
             235         54.6720         54.6584    -10.8374E-03     546.675E-03
             236         54.3845         54.3690    -13.8123E-03     558.341E-03
             237         54.0922         54.0748    -16.6117E-03     573.032E-03
             238         53.7936         53.7743    -19.2566E-03     590.571E-03
             239         53.4873         53.4660    -21.7645E-03     610.801E-03
             240         53.1721         53.1487    -24.1503E-03     633.584E-03
             241         52.8466         52.8211    -26.4266E-03     658.795E-03
             242         52.5098         52.4820    -28.6038E-03     686.320E-03
             243         52.1604         52.1304    -30.6908E-03     716.060E-03
             244         51.7976         51.7651    -32.6947E-03     747.918E-03
             245         51.4203         51.3852    -34.6214E-03     781.810E-03
             246         51.0276         50.9897    -36.4755E-03     817.654E-03
             247         50.6184         50.5776    -38.2604E-03     855.374E-03
             248         50.1921         50.1481    -39.9787E-03     894.895E-03
             249         49.7477         49.7004    -41.6317E-03     936.147E-03
             250         49.2844         49.2336    -43.2200E-03     979.058E-03
             251         48.8016         48.7470    -44.7432E-03         1.02356
             252         48.2985         48.2399    -46.2001E-03         1.06958
             253         47.7745         47.7115    -47.5886E-03         1.11705
             254         47.2288         47.1612    -48.9058E-03         1.16589
             255         46.6610         46.5884    -50.1480E-03         1.21602
             256         46.0706         45.9926    -51.3103E-03         1.26737
             257         45.4569         45.3731    -52.3873E-03         1.31983
             258         44.8196         44.7297    -53.3723E-03         1.37333
             259         44.1582         44.0618    -54.2579E-03         1.42775
             260         43.4725         43.3690    -55.0355E-03         1.48299
             261         42.7622         42.6511    -55.6954E-03         1.53893
             262         42.0269         41.9079    -56.2268E-03         1.59544
             263         41.2667         41.1390    -56.6176E-03         1.65238
             264         40.4815         40.3446    -56.8543E-03         1.70959
             265         39.6711         39.5244    -56.9221E-03         1.76691
             266         38.8358         38.6786    -56.8045E-03         1.82415
             267         37.9757         37.8074    -56.4834E-03         1.88111
             268         37.0912         36.9110    -55.9389E-03         1.93757
             269         36.1825         35.9898    -55.1489E-03         1.99329
             270         35.2503         35.0443    -54.0894E-03         2.04799
             271         34.2952         34.0752    -52.7339E-03         2.10140
             272         33.3180         33.0831    -51.0534E-03         2.15319
             273         32.3196         32.0691    -49.0162E-03         2.20301
             274         31.3012         31.0342    -46.5874E-03         2.25048
             275         30.2638         29.9797    -43.7289E-03         2.29519
             276         29.2092         28.9072    -40.3989E-03         2.33667
             277         28.1388         27.8183    -36.5517E-03         2.37442
             278         27.0545         26.7150    -32.1373E-03         2.40790
             279         25.9584         25.5995    -27.1011E-03         2.43651
             280         24.8528         24.4743    -21.3835E-03         2.45959
             281         23.7402         23.3421    -14.9193E-03         2.47643
             282         22.6235         22.2060    -7.63776E-03         2.48626
             283         21.5055         21.0695     537.896E-06         2.48823
             284         20.3897         19.9364     9.69067E-03         2.48141
             285         19.2795         18.8109     19.9097E-03         2.46482
             286         18.1788         17.6975     31.2898E-03         2.43736
             287         17.0916         16.6013     43.9306E-03         2.39789
             288         16.0222         15.5277     57.9342E-03         2.34514
             289         14.9751         14.4826     73.4017E-03         2.27781
             290         13.9551         13.4725     90.4274E-03         2.19451
             291         12.9672         12.5039     109.088E-03         2.09379
             292         12.0167         11.5840     129.423E-03         1.97423
             293         11.1093         10.7202     151.410E-03         1.83446
             294         10.2516         9.91971     174.905E-03         1.67330
             295         9.45089         9.18987     199.565E-03         1.48994
             296         8.71578         8.53723     224.683E-03         1.28430
             297         8.05658         7.96705     248.891E-03         1.05760
             298         7.48494         7.48234     269.724E-03     813.307E-03
             299         7.01252         7.08186     281.884E-03     559.630E-03
             300         6.64693         6.75895     276.585E-03     311.474E-03
             301         6.38839         6.49469     224.575E-03     113.481E-03
             302         6.29740         6.31390     33.2593E-03     2.15123E-03
             303         6.49643         6.29239    -390.304E-03     16.2817E-03
             304         74.9361         76.7737         23.2126         17.9305
             305         78.1879         78.6278         18.4427         18.6272
             306         79.7741         79.5827         12.5282         17.0342
             307         79.0522         78.8405         8.03110         14.1668
             308         77.1601         77.0912         5.24652         11.3659
             309         74.9900         75.0137         3.58017         9.16849
             310         72.8873         72.9632         2.52895         7.46204
             311         70.9755         71.0783         1.85407         6.15741
             312         69.2802         69.3931         1.39886         5.14621
             313         67.7891         67.9031         1.08203         4.35239
             314         66.4796         66.5895     853.972E-03         3.72010
             315         65.3273         65.4302     685.238E-03         3.20985
             316         64.3095         64.4041     557.269E-03         2.79331
             317         63.4066         63.4922     458.102E-03         2.44993
             318         62.6016         62.6783     379.771E-03         2.16458
             319         61.8802         61.9481     316.837E-03         1.92594
             320         61.2304         61.2897     265.498E-03         1.72541
             321         60.6417         60.6929     223.037E-03         1.55639
             322         60.1054         60.1490     187.477E-03         1.41371
             323         59.6140         59.6504     157.353E-03         1.29331
             324         59.1610         59.1906     131.565E-03         1.19193
             325         58.7407         58.7639     109.272E-03         1.10694
             326         58.3481         58.3654     89.8244E-03         1.03622
             327         57.9790         57.9906     72.7146E-03     978.003E-03
             328         57.6295         57.6357     57.5414E-03     930.844E-03
             329         57.2961         57.2972     43.9844E-03     893.527E-03
             330         56.9758         56.9720     31.7858E-03     865.036E-03
             331         56.6658         56.6572     20.7360E-03     844.511E-03
             332         56.3636         56.3505     10.6637E-03     831.219E-03
             333         56.0669         56.0494     1.42781E-03     824.537E-03
             334         55.7736         55.7518    -7.08861E-03     823.925E-03
             335         55.4819         55.4558    -14.9830E-03     828.920E-03
             336         55.1899         55.1595    -22.3368E-03     839.117E-03
             337         54.8960         54.8614    -29.2187E-03     854.166E-03
             338         54.5986         54.5598    -35.6863E-03     873.757E-03
             339         54.2964         54.2533    -41.7885E-03     897.618E-03
             340         53.9881         53.9405    -47.5664E-03     925.507E-03
             341         53.6722         53.6201    -53.0548E-03     957.210E-03
             342         53.3478         53.2909    -58.2832E-03     992.533E-03
             343         53.0136         52.9518    -63.2762E-03         1.03130
             344         52.6686         52.6017    -68.0543E-03         1.07336
             345         52.3118         52.2395    -72.6344E-03         1.11855
             346         51.9422         51.8643    -77.0304E-03         1.16676
             347         51.5590         51.4752    -81.2531E-03         1.21784
             348         51.1613         51.0712    -85.3106E-03         1.27168
             349         50.7483         50.6515    -89.2089E-03         1.32816
             350         50.3193         50.2153    -92.9515E-03         1.38717
             351         49.8734         49.7619    -96.5398E-03         1.44861
             352         49.4100         49.2905    -99.9732E-03         1.51236
             353         48.9286         48.8005    -103.249E-03         1.57831
             354         48.4284         48.2911    -106.363E-03         1.64635
             355         47.9090         47.7619    -109.307E-03         1.71637
             356         47.3698         47.2123    -112.075E-03         1.78823
             357         46.8104         46.6417    -114.655E-03         1.86182
             358         46.2303         46.0497    -117.034E-03         1.93700
             359         45.6291         45.4359    -119.199E-03         2.01362
             360         45.0067         44.7999    -121.131E-03         2.09153
             361         44.3626         44.1415    -122.811E-03         2.17057
             362         43.6967         43.4603    -124.219E-03         2.25055
             363         43.0089         42.7561    -125.329E-03         2.33128
             364         42.2991         42.0290    -126.114E-03         2.41255
             365         41.5673         41.2787    -126.545E-03         2.49413
             366         40.8135         40.5055    -126.587E-03         2.57576
             367         40.0379         39.7093    -126.204E-03         2.65718
             368         39.2408         38.8903    -125.355E-03         2.73807
             369         38.4225         38.0490    -123.996E-03         2.81813
             370         37.5833         37.1857    -122.078E-03         2.89698
             371         36.7239         36.3009    -119.548E-03         2.97424
             372         35.8449         35.3953    -116.347E-03         3.04949
             373         34.9471         34.4698    -112.411E-03         3.12226
             374         34.0312         33.5251    -107.669E-03         3.19205
             375         33.0983         32.5625    -102.047E-03         3.25830
             376         32.1496         31.5832    -95.4598E-03         3.32040
             377         31.1863         30.5886    -87.8173E-03         3.37771
             378         30.2097         29.5804    -79.0206E-03         3.42951
             379         29.2215         28.5604    -68.9621E-03         3.47501
             380         28.2234         27.5307    -57.5252E-03         3.51338
             381         27.2171         26.4936    -44.5834E-03         3.54369
             382         26.2046         25.4517    -30.0000E-03         3.56495
             383         25.1881         24.4078    -13.6276E-03         3.57608
             384         24.1697         23.3650     4.69116E-03         3.57591
             385         23.1518         22.3266     25.1242E-03         3.56319
             386         22.1370         21.2965     47.8480E-03         3.53656
             387         21.1277         20.2786     73.0457E-03         3.49460
             388         20.1267         19.2771     100.903E-03         3.43576
             389         19.1369         18.2968     131.601E-03         3.35845
             390         18.1610         17.3425     165.304E-03         3.26100
             391         17.2024         16.4192     202.144E-03         3.14169
             392         16.2645         15.5325     242.190E-03         2.99884
             393         15.3510         14.6875     285.398E-03         2.83085
             394         14.4666         13.8898     331.540E-03         2.63634
             395         13.6167         13.1445     380.076E-03         2.41433
             396         12.8080         12.4563     429.935E-03         2.16455
             397         12.0492         11.8292     479.177E-03         1.88790
             398         11.3511         11.2659     524.265E-03         1.58723
             399         10.7267         10.7677     559.133E-03         1.26843
             400         10.1923         10.3343     571.906E-03     943.036E-03
             401         9.76674         9.96561     542.229E-03     628.593E-03
             402         9.48433         9.67002     425.689E-03     355.159E-03
             403         9.39920         9.47124     152.259E-03     140.755E-03
             404         9.57340         9.39107    -354.769E-03    -7.80617E-03
             405         70.9610         72.9331         22.0270         16.7086
             406         73.1703         74.1217         18.6264         17.2582
             407         74.7795         75.1047         14.3632         16.5699
             408         75.1844         75.3018         10.4832         14.8531
             409         74.5949         74.6991         7.54953         12.7983
             410         73.4311         73.5731         5.48558         10.8415
             411         72.0409         72.2185         4.06104         9.14998
             412         70.6180         70.8155         3.07151         7.74929
             413         69.2538         69.4575         2.37059         6.60249
             414         67.9873         68.1879         1.86378         5.66581
             415         66.8303         67.0217         1.48892         4.89760
             416         65.7813         65.9600         1.20580         4.26387
             417         64.8329         64.9971     987.694E-03         3.73765
             418         63.9758         64.1246     816.628E-03         3.29802
             419         63.1999         63.3334     680.227E-03         2.92872
             420         62.4959         62.6143     569.823E-03         2.61709
             421         61.8550         61.9587     479.228E-03         2.35326
             422         61.2692         61.3590     403.949E-03         2.12939
             423         60.7315         60.8082     340.668E-03         1.93927
             424         60.2357         60.2999     286.902E-03         1.77791
             425         59.7762         59.8286     240.766E-03         1.64127
             426         59.3481         59.3893     200.808E-03         1.52606
             427         58.9469         58.9776     165.902E-03         1.42956
             428         58.5687         58.5895     135.160E-03         1.34953
             429         58.2100         58.2214     107.877E-03         1.28411
             430         57.8677         57.8700     83.4883E-03         1.23170
             431         57.5388         57.5325     61.5386E-03         1.19100
             432         57.2207         57.2062     41.6557E-03         1.16087
             433         56.9112         56.8886     23.5347E-03         1.14035
             434         56.6079         56.5776     6.92400E-03         1.12861
             435         56.3090         56.2711    -8.38539E-03         1.12494
             436         56.0126         55.9672    -22.5678E-03         1.12873
             437         55.7170         55.6641    -35.7694E-03         1.13943
             438         55.4206         55.3603    -48.1133E-03         1.15657
             439         55.1220         55.0543    -59.7031E-03         1.17974
             440         54.8199         54.7445    -70.6266E-03         1.20857
             441         54.5128         54.4298    -80.9581E-03         1.24274
             442         54.1998         54.1088    -90.7603E-03         1.28195
             443         53.8795         53.7804    -100.086E-03         1.32594
             444         53.5510         53.4435    -108.980E-03         1.37447
             445         53.2132         53.0970    -117.479E-03         1.42733
             446         52.8653         52.7399    -125.615E-03         1.48432
             447         52.5063         52.3713    -133.411E-03         1.54525
             448         52.1355         51.9903    -140.888E-03         1.60994
             449         51.7519         51.5960    -148.060E-03         1.67824
             450         51.3549         51.1877    -154.939E-03         1.74998
             451         50.9437         50.7646    -161.530E-03         1.82501
             452         50.5177         50.3260    -167.838E-03         1.90318
             453         50.0764         49.8711    -173.860E-03         1.98434
             454         49.6190         49.3995    -179.593E-03         2.06833
             455         49.1452         48.9104    -185.028E-03         2.15500
             456         48.6543         48.4034    -190.154E-03         2.24420
             457         48.1460         47.8779    -194.956E-03         2.33576
             458         47.6198         47.3335    -199.417E-03         2.42950
             459         47.0755         46.7698    -203.513E-03         2.52524
             460         46.5126         46.1863    -207.219E-03         2.62279
             461         45.9311         45.5829    -210.505E-03         2.72194
             462         45.3306         44.9592    -213.338E-03         2.82246
             463         44.7110         44.3150    -215.679E-03         2.92412
             464         44.0722         43.6502    -217.486E-03         3.02665
             465         43.4143         42.9648    -218.711E-03         3.12978
             466         42.7372         42.2587    -219.302E-03         3.23320
             467         42.0411         41.5320    -219.201E-03         3.33658
             468         41.3261         40.7849    -218.343E-03         3.43956
             469         40.5925         40.0176    -216.658E-03         3.54174
             470         39.8407         39.2304    -214.070E-03         3.64270
             471         39.0709         38.4239    -210.495E-03         3.74199
             472         38.2837         37.5985    -205.839E-03         3.83908
             473         37.4797         36.7549    -200.002E-03         3.93343
             474         36.6595         35.8938    -192.875E-03         4.02444
             475         35.8238         35.0163    -184.338E-03         4.11147
             476         34.9735         34.1234    -174.261E-03         4.19380
             477         34.1095         33.2162    -162.504E-03         4.27067
             478         33.2327         32.2962    -148.913E-03         4.34124
             479         32.3443         31.3649    -133.321E-03         4.40461
             480         31.4454         30.4239    -115.551E-03         4.45980
             481         30.5372         29.4753    -95.4083E-03         4.50576
             482         29.6210         28.5211    -72.6852E-03         4.54133
             483         28.6982         27.5637    -47.1591E-03         4.56529
             484         27.7701         26.6056    -18.5927E-03         4.57632
             485         26.8382         25.6494     13.2641E-03         4.57299
             486         25.9040         24.6983     48.6735E-03         4.55379
             487         24.9690         23.7554     87.9055E-03         4.51712
             488         24.0348         22.8241     131.232E-03         4.46127
             489         23.1029         21.9080     178.917E-03         4.38446
             490         22.1752         21.0110     231.203E-03         4.28487
             491         21.2534         20.1370     288.285E-03         4.16063
             492         20.3398         19.2900     350.277E-03         4.00990
             493         19.4368         18.4741     417.155E-03         3.83090
             494         18.5475         17.6935     488.673E-03         3.62210
             495         17.6761         16.9520     564.224E-03         3.38226
             496         16.8276         16.2532     642.628E-03         3.11077
             497         16.0090         15.6004     721.782E-03         2.80792
             498         15.2296         14.9963     798.111E-03         2.47537
             499         14.5015         14.4430     865.593E-03         2.11691
             500         13.8405         13.9426     914.260E-03         1.73915
             501         13.2674         13.4978     927.343E-03         1.35279
             502         12.8104         13.1152     877.317E-03     972.067E-03
             503         12.5089         12.8082     720.261E-03     613.203E-03
             504         12.4157         12.5998     397.337E-03     285.772E-03
             505         12.6069         12.5236    -165.130E-03    -2.44350E-03
             506         67.9457         70.0879         21.1082         15.6864
             507         69.6814         71.0487         18.5508         16.1395
             508         71.1581         71.9498         15.3251         15.8586
             509         71.9574         72.4438         12.1088         14.8362
             510         72.0369         72.4042         9.35636         13.3772
             511         71.5766         71.9117         7.19257         11.7957
             512         70.7881         71.1187         5.55947         10.2885
             513         69.8357         70.1645         4.34252         8.94061
             514         68.8268         69.1488         3.43434         7.77315
             515         67.8245         68.1336         2.75044         6.77759
             516         66.8625         67.1540         2.22875         5.93379
             517         65.9572         66.2281         1.82512         5.21967
             518         65.1148         65.3633         1.50826         4.61465
             519         64.3355         64.5610         1.25600         4.10095
             520         63.6168         63.8192         1.05244         3.66371
             521         62.9544         63.1342     886.080E-03         3.29073
             522         62.3434         62.5014     748.499E-03         2.97201
             523         61.7789         61.9160     633.444E-03         2.69940
             524         61.2558         61.3731     536.222E-03         2.46625
             525         60.7697         60.8681     453.263E-03         2.26707
             526         60.3162         60.3967     381.824E-03         2.09736
             527         59.8912         59.9548     319.776E-03         1.95338
             528         59.4912         59.5388     265.444E-03         1.83201
             529         59.1128         59.1452     217.503E-03         1.73065
             530         58.7529         58.7709     174.893E-03         1.64709
             531         58.4088         58.4129     136.761E-03         1.57948
             532         58.0778         58.0688     102.413E-03         1.52624
             533         57.7577         57.7360     71.2810E-03         1.48600
             534         57.4463         57.4123     42.8981E-03         1.45761
             535         57.1416         57.0956     16.8771E-03         1.44007
             536         56.8418         56.7841    -7.10401E-03         1.43250
             537         56.5451         56.4759    -29.3149E-03         1.43415
             538         56.2500         56.1694    -49.9820E-03         1.44435
             539         55.9551         55.8631    -69.2965E-03         1.46253
             540         55.6590         55.5555    -87.4196E-03         1.48815
             541         55.3603         55.2453    -104.488E-03         1.52078
             542         55.0579         54.9311    -120.617E-03         1.56000
             543         54.7507         54.6120    -135.906E-03         1.60545
             544         54.4376         54.2866    -150.436E-03         1.65679
             545         54.1177         53.9539    -164.278E-03         1.71373
             546         53.7900         53.6130    -177.490E-03         1.77599
             547         53.4537         53.2629    -190.120E-03         1.84333
             548         53.1078         52.9027    -202.207E-03         1.91549
             549         52.7517         52.5315    -213.782E-03         1.99227
             550         52.3847         52.1486    -224.869E-03         2.07345
             551         52.0060         51.7532    -235.485E-03         2.15883
             552         51.6150         51.3446    -245.640E-03         2.24822
             553         51.2111         50.9221    -255.340E-03         2.34141
             554         50.7938         50.4851    -264.582E-03         2.43822
             555         50.3626         50.0331    -273.362E-03         2.53846
             556         49.9170         49.5653    -281.666E-03         2.64192
             557         49.4565         49.0815    -289.477E-03         2.74840
             558         48.9809         48.5811    -296.773E-03         2.85770
             559         48.4897         48.0636    -303.526E-03         2.96960
             560         47.9826         47.5288    -309.701E-03         3.08386
             561         47.4595         46.9763    -315.260E-03         3.20024
             562         46.9202         46.4059    -320.157E-03         3.31848
             563         46.3644         45.8173    -324.340E-03         3.43830
             564         45.7920         45.2104    -327.751E-03         3.55941
             565         45.2031         44.5850    -330.326E-03         3.68147
             566         44.5976         43.9413    -331.991E-03         3.80414
             567         43.9756         43.2791    -332.667E-03         3.92705
             568         43.3372         42.5986    -332.265E-03         4.04979
             569         42.6825         41.9001    -330.689E-03         4.17191
             570         42.0118         41.1836    -327.832E-03         4.29293
             571         41.3253         40.4497    -323.578E-03         4.41234
             572         40.6234         39.6987    -317.799E-03         4.52957
             573         39.9064         38.9313    -310.358E-03         4.64402
             574         39.1749         38.1480    -301.102E-03         4.75501
             575         38.4293         37.3495    -289.868E-03         4.86182
             576         37.6701         36.5369    -276.479E-03         4.96368
             577         36.8980         35.7111    -260.741E-03         5.05975
             578         36.1136         34.8732    -242.445E-03         5.14910
             579         35.3175         34.0245    -221.366E-03         5.23075
             580         34.5105         33.1664    -197.262E-03         5.30364
             581         33.6933         32.3005    -169.872E-03         5.36662
             582         32.8667         31.4286    -138.916E-03         5.41845
             583         32.0313         30.5525    -104.096E-03         5.45780
             584         31.1880         29.6742    -65.0968E-03         5.48326
             585         30.3375         28.7961    -21.5849E-03         5.49331
             586         29.4806         27.9204     26.7855E-03         5.48633
             587         28.6179         27.0499     80.3705E-03         5.46062
             588         27.7502         26.1871     139.528E-03         5.41439
             589         26.8784         25.3349     204.608E-03         5.34577
             590         26.0031         24.4963     275.933E-03         5.25283
             591         25.1255         23.6744     353.775E-03         5.13360
             592         24.2466         22.8724     438.315E-03         4.98615
             593         23.3681         22.0934     529.588E-03         4.80859
             594         22.4918         21.3406     627.397E-03         4.59920
             595         21.6207         20.6169     731.183E-03         4.35653
             596         20.7587         19.9254     839.838E-03         4.07957
             597         19.9110         19.2687     951.404E-03         3.76799
             598         19.0852         18.6493         1.06263         3.42240
             599         18.2914         18.0695         1.16829         3.04478
             600         17.5430         17.5320         1.26012         2.63885
             601         16.8583         17.0402         1.32527         2.21047
             602         16.2609         16.5996         1.34403         1.76769
             603         15.7822         16.2196         1.28713         1.31972
             604         15.4634         15.9155         1.11351     874.662E-03
             605         15.3574         15.7093     770.094E-03     435.964E-03
             606         15.5386         15.6315     187.555E-03     127.133E-06
             607         65.7036         68.0223         20.4647         14.8681
             608         67.1169         68.8183         18.4025         15.2369
             609         68.4087         69.6042         15.8427         15.1298
             610         69.3139         70.1764         13.1709         14.4972
             611         69.7376         70.4129         10.7066         13.4736
             612         69.7235         70.3024         8.60914         12.2483
             613         69.3804         69.9085         6.90710         10.9788
             614         68.8226         69.3180         5.55964         9.76442
             615         68.1419         68.6096         4.50326         8.65497
             616         67.4035         67.8431         3.67547         7.66771
             617         66.6501         67.0601         3.02363         6.80219
             618         65.9084         66.2870         2.50624         6.04957
             619         65.1935         65.5400         2.09163         5.39784
             620         64.5137         64.8279         1.75596         4.83451
             621         63.8724         64.1546         1.48137         4.34792
             622         63.2703         63.5214         1.25442         3.92769
             623         62.7063         62.9272         1.06498         3.56482
             624         62.1782         62.3703     905.331E-03         3.25164
             625         61.6836         61.8482     769.554E-03         2.98164
             626         61.2194         61.3579     653.072E-03         2.74932
             627         60.7829         60.8965     552.314E-03         2.55005
             628         60.3711         60.4611     464.470E-03         2.37989
             629         59.9813         60.0489     387.309E-03         2.23554
             630         59.6108         59.6571     319.047E-03         2.11416
             631         59.2571         59.2831     258.246E-03         2.01335
             632         58.9180         58.9246     203.739E-03         1.93104
             633         58.5913         58.5792     154.572E-03         1.86546
             634         58.2748         58.2449     109.961E-03         1.81510
             635         57.9669         57.9195     69.2568E-03         1.77862
             636         57.6656         57.6014     31.9189E-03         1.75488
             637         57.3694         57.2886    -2.50377E-03         1.74288
             638         57.0767         56.9797    -34.3898E-03         1.74174
             639         56.7861         56.6730    -64.0584E-03         1.75069
             640         56.4963         56.3672    -91.7795E-03         1.76905
             641         56.2061         56.0609    -117.781E-03         1.79621
             642         55.9142         55.7528    -142.258E-03         1.83164
             643         55.6196         55.4418    -165.374E-03         1.87485
             644         55.3213         55.1268    -187.270E-03         1.92541
             645         55.0182         54.8066    -208.062E-03         1.98293
             646         54.7096         54.4803    -227.851E-03         2.04704
             647         54.3945         54.1469    -246.719E-03         2.11742
             648         54.0721         53.8056    -264.737E-03         2.19376
             649         53.7418         53.4555    -281.959E-03         2.27578
             650         53.4028         53.0958    -298.431E-03         2.36321
             651         53.0544         52.7258    -314.187E-03         2.45580
             652         52.6961         52.3448    -329.251E-03         2.55329
             653         52.3272         51.9520    -343.639E-03         2.65546
             654         51.9473         51.5469    -357.358E-03         2.76205
             655         51.5558         51.1289    -370.406E-03         2.87285
             656         51.1523         50.6975    -382.775E-03         2.98761
             657         50.7365         50.2521    -394.449E-03         3.10610
             658         50.3079         49.7923    -405.402E-03         3.22807
             659         49.8662         49.3177    -415.604E-03         3.35326
             660         49.4111         48.8279    -425.014E-03         3.48142
             661         48.9424         48.3226    -433.586E-03         3.61226
             662         48.4599         47.8016    -441.264E-03         3.74550
             663         47.9634         47.2645    -447.984E-03         3.88081
             664         47.4529         46.7113    -453.673E-03         4.01787
             665         46.9281         46.1418    -458.250E-03         4.15631
             666         46.3890         45.5559    -461.625E-03         4.29577
             667         45.8358         44.9536    -463.695E-03         4.43582
             668         45.2684         44.3351    -464.349E-03         4.57601
             669         44.6868         43.7004    -463.464E-03         4.71589
             670         44.0913         43.0497    -460.905E-03         4.85491
             671         43.4820         42.3833    -456.524E-03         4.99253
             672         42.8590         41.7016    -450.159E-03         5.12813
             673         42.2227         41.0050    -441.634E-03         5.26106
             674         41.5732         40.2940    -430.759E-03         5.39062
             675         40.9109         39.5693    -417.324E-03         5.51604
             676         40.2360         38.8316    -401.107E-03         5.63648
             677         39.5490         38.0816    -381.862E-03         5.75106
             678         38.8501         37.3204    -359.327E-03         5.85881
             679         38.1397         36.5490    -333.219E-03         5.95870
             680         37.4182         35.7686    -303.234E-03         6.04959
             681         36.6858         34.9803    -269.046E-03         6.13030
             682         35.9430         34.1858    -230.306E-03         6.19953
             683         35.1899         33.3864    -186.645E-03         6.25591
             684         34.4268         32.5839    -137.670E-03         6.29795
             685         33.6541         31.7800    -82.9698E-03         6.32410
             686         32.8718         30.9768    -22.1173E-03         6.33269
             687         32.0802         30.1762     45.3265E-03         6.32196
             688         31.2793         29.3803     119.805E-03         6.29008
             689         30.4693         28.5916     201.752E-03         6.23514
             690         29.6505         27.8122     291.576E-03         6.15515
             691         28.8231         27.0447     389.636E-03         6.04810
             692         27.9874         26.2915     496.198E-03         5.91197
             693         27.1444         25.5551     611.387E-03         5.74481
             694         26.2952         24.8379     735.107E-03         5.54475
             695         25.4415         24.1424     866.927E-03         5.31013
             696         24.5862         23.4710         1.00592         5.03961
             697         23.7333         22.8259         1.15042         4.73231
             698         22.8884         22.2093         1.29768         4.38800
             699         22.0596         21.6236         1.44338         4.00733
             700         21.2577         21.0712         1.58091         3.59202
             701         20.4974         20.5555         1.70038         3.14507
             702         19.7978         20.0811         1.78727         2.67067
             703         19.1841         19.6552         1.82081         2.17382
             704         18.6886         19.2886         1.77229         1.65912
             705         18.3521         18.9966         1.60386         1.12889
             706         18.2271         18.8003         1.26821     580.520E-03
             707         18.3849         18.7275     705.450E-03     3.31216E-03
             708         63.9398         66.4373         19.9723         14.1703
             709         65.1288         67.1202         18.2413         14.4714
             710         66.2647         67.8130         16.1324         14.4469
             711         67.1714         68.3875         13.8799         14.0440
             712         67.7551         68.7472         11.7026         13.3184
             713         68.0061         68.8551         9.74315         12.3793
             714         67.9712         68.7273         8.06268         11.3396
             715         67.7184         68.4088         6.66368         10.2871
             716         67.3149         67.9526         5.51802         9.27829
             717         66.8163         67.4067         4.58663         8.34427
             718         66.2645         66.8097         3.83034         7.49817
             719         65.6892         66.1901         3.21453         6.74227
             720         65.1106         65.5677         2.71050         6.07289
             721         64.5418         64.9558         2.29520         5.48344
             722         63.9907         64.3626         1.95044         4.96628
             723         63.4617         63.7929         1.66198         4.51371
             724         62.9571         63.2490         1.41870         4.11848
             725         62.4775         62.7317         1.21189         3.77401
             726         62.0222         62.2404         1.03470         3.47447
             727         61.5904         61.7743     881.744E-03         3.21474
             728         61.1803         61.3316     748.733E-03         2.99038
             729         60.7904         60.9106     632.247E-03         2.79753
             730         60.4187         60.5094     529.536E-03         2.63285
             731         60.0635         60.1260     438.378E-03         2.49346
             732         59.7228         59.7584     356.964E-03         2.37687
             733         59.3949         59.4048     283.811E-03         2.28090
             734         59.0781         59.0632     217.702E-03         2.20369
             735         58.7706         58.7319     157.627E-03         2.14359
             736         58.4710         58.4092     102.745E-03         2.09916
             737         58.1778         58.0934     52.3556E-03         2.06917
             738         57.8894         57.7831     5.86798E-03         2.05250
             739         57.6047         57.4768    -37.2140E-03         2.04818
             740         57.3224         57.1731    -77.3106E-03         2.05536
             741         57.0413         56.8707    -114.778E-03         2.07327
             742         56.7603         56.5684    -149.919E-03         2.10124
             743         56.4783         56.2650    -182.990E-03         2.13864
             744         56.1945         55.9595    -214.212E-03         2.18494
             745         55.9078         55.6508    -243.769E-03         2.23963
             746         55.6174         55.3379    -271.819E-03         2.30227
             747         55.3226         55.0199    -298.497E-03         2.37245
             748         55.0224         54.6959    -323.912E-03         2.44978
             749         54.7164         54.3652    -348.158E-03         2.53390
             750         54.4036         54.0268    -371.310E-03         2.62449
             751         54.0837         53.6801    -393.428E-03         2.72124
             752         53.7559         53.3244    -414.558E-03         2.82384
             753         53.4197         52.9590    -434.733E-03         2.93201
             754         53.0746         52.5834    -453.975E-03         3.04547
             755         52.7201         52.1968    -472.293E-03         3.16394
             756         52.3559         51.7989    -489.686E-03         3.28715
             757         51.9816         51.3891    -506.143E-03         3.41482
             758         51.5967         50.9669    -521.642E-03         3.54666
             759         51.2010         50.5320    -536.150E-03         3.68240
             760         50.7941         50.0839    -549.626E-03         3.82174
             761         50.3759         49.6224    -562.017E-03         3.96437
             762         49.9462         49.1471    -573.261E-03         4.10996
             763         49.5047         48.6579    -583.283E-03         4.25817
             764         49.0512         48.1545    -592.000E-03         4.40865
             765         48.5858         47.6368    -599.316E-03         4.56100
             766         48.1084         47.1047    -605.123E-03         4.71482
             767         47.6187         46.5582    -609.300E-03         4.86966
             768         47.1170         45.9972    -611.715E-03         5.02506
             769         46.6031         45.4219    -612.219E-03         5.18051
             770         46.0771         44.8324    -610.652E-03         5.33546
             771         45.5391         44.2290    -606.835E-03         5.48933
             772         44.9891         43.6118    -600.574E-03         5.64147
             773         44.4272         42.9812    -591.660E-03         5.79120
             774         43.8536         42.3377    -579.862E-03         5.93780
             775         43.2684         41.6818    -564.930E-03         6.08046
             776         42.6716         41.0140    -546.597E-03         6.21832
             777         42.0634         40.3350    -524.571E-03         6.35047
             778         41.4440         39.6456    -498.537E-03         6.47590
             779         40.8133         38.9467    -468.159E-03         6.59357
             780         40.1714         38.2391    -433.074E-03         6.70231
             781         39.5184         37.5240    -392.895E-03         6.80090
             782         38.8543         36.8025    -347.210E-03         6.88803
             783         38.1789         36.0758    -295.580E-03         6.96229
             784         37.4923         35.3452    -237.543E-03         7.02220
             785         36.7942         34.6123    -172.613E-03         7.06616
             786         36.0843         33.8786    -100.287E-03         7.09250
             787         35.3625         33.1457    -20.0442E-03         7.09944
             788         34.6285         32.4153     68.6380E-03         7.08514
             789         33.8818         31.6893     166.279E-03         7.04767
             790         33.1223         30.9694     273.376E-03         6.98504
             791         32.3496         30.2576     390.377E-03         6.89520
             792         31.5637         29.5559     517.651E-03         6.77611
             793         30.7648         28.8663     655.433E-03         6.62573
             794         29.9533         28.1906     803.759E-03         6.44211
             795         29.1302         27.5308     962.371E-03         6.22341
             796         28.2973         26.8888         1.13058         5.96801
             797         27.4576         26.2667         1.30707         5.67462
             798         26.6150         25.6662         1.48966         5.34237
             799         25.7758         25.0894         1.67490         4.97093
             800         24.9482         24.5387         1.85762         4.56066
             801         24.1438         24.0171         2.03024         4.11268
             802         23.3775         23.5283         2.18190         3.62880
             803         22.6692         23.0780         2.29748         3.11128
             804         22.0439         22.6741         2.35640         2.56216
             805         21.5335         22.3278         2.33165         1.98217
             806         21.1781         22.0539         2.18916         1.36908
             807         21.0279         21.8715         1.88768     715.529E-03
             808         21.1497         21.8045         1.37707     5.70282E-03
             809         62.5155         65.1908         19.5878         13.5600
             810         63.5426         65.7921         18.0887         13.8076
             811         64.5493         66.4091         16.2977         13.8220
             812         65.4166         66.9583         14.3643         13.5572
             813         66.0666         67.3682         12.4398         13.0336
             814         66.4706         67.5980         10.6390         12.3132
             815         66.6406         67.6412         9.02855         11.4720
             816         66.6125         67.5169         7.63230         10.5790
             817         66.4303         67.2565         6.44567         9.68710
             818         66.1364         66.8944         5.44883         8.83121
             819         65.7667         66.4621         4.61605         8.03188
             820         65.3495         65.9856         3.92125         7.29904
             821         64.9059         65.4850         3.34062         6.63567
             822         64.4513         64.9753         2.85368         6.04052
             823         63.9964         64.4670         2.44334         5.51001
             824         63.5481         63.9675         2.09558         5.03938
             825         63.1112         63.4812         1.79907         4.62353
             826         62.6884         63.0111         1.54463         4.25736
             827         62.2810         62.5585         1.32490         3.93606
             828         61.8894         62.1238         1.13390         3.65521
             829         61.5135         61.7069     966.827E-03         3.41082
             830         61.1527         61.3069     819.767E-03         3.19931
             831         60.8060         60.9228     689.532E-03         3.01751
             832         60.4725         60.5536     573.513E-03         2.86264
             833         60.1507         60.1977     469.563E-03         2.73222
             834         59.8396         59.8539     375.909E-03         2.62407
             835         59.5379         59.5206     291.078E-03         2.53630
             836         59.2443         59.1966     213.841E-03         2.46721
             837         58.9576         58.8805     143.170E-03         2.41531
             838         58.6766         58.5708     78.1995E-03         2.37929
             839         58.4001         58.2663     18.2001E-03         2.35797
             840         58.1271         57.9657    -37.4462E-03         2.35033
             841         57.8566         57.6679    -89.2646E-03         2.35543
             842         57.5874         57.3716    -137.702E-03         2.37246
             843         57.3187         57.0759    -183.138E-03         2.40067
             844         57.0496         56.7796    -225.898E-03         2.43939
             845         56.7792         56.4819    -266.259E-03         2.48802
             846         56.5068         56.1816    -304.456E-03         2.54601
             847         56.2315         55.8780    -340.691E-03         2.61286
             848         55.9528         55.5702    -375.132E-03         2.68810
             849         55.6698         55.2574    -407.922E-03         2.77132
             850         55.3820         54.9388    -439.178E-03         2.86210
             851         55.0888         54.6137    -468.998E-03         2.96009
             852         54.7897         54.2815    -497.458E-03         3.06491
             853         54.4841         53.9414    -524.616E-03         3.17624
             854         54.1716         53.5930    -550.516E-03         3.29375
             855         53.8517         53.2355    -575.186E-03         3.41711
             856         53.5240         52.8686    -598.637E-03         3.54601
             857         53.1882         52.4917    -620.868E-03         3.68014
             858         52.8440         52.1044    -641.866E-03         3.81918
             859         52.4909         51.7062    -661.602E-03         3.96282
             860         52.1288         51.2969    -680.036E-03         4.11071
             861         51.7574         50.8760    -697.114E-03         4.26254
             862         51.3764         50.4432    -712.770E-03         4.41794
             863         50.9858         49.9984    -726.925E-03         4.57655
             864         50.5853         49.5413    -739.484E-03         4.73798
             865         50.1748         49.0718    -750.341E-03         4.90182
             866         49.7541         48.5897    -759.374E-03         5.06765
             867         49.3233         48.0949    -766.448E-03         5.23499
             868         48.8822         47.5876    -771.409E-03         5.40336
             869         48.4308         47.0676    -774.089E-03         5.57223
             870         47.9690         46.5351    -774.303E-03         5.74103
             871         47.4968         45.9902    -771.846E-03         5.90916
             872         47.0143         45.4332    -766.496E-03         6.07596
             873         46.5213         44.8643    -758.010E-03         6.24073
             874         46.0178         44.2838    -746.124E-03         6.40272
             875         45.5039         43.6922    -730.549E-03         6.56113
             876         44.9795         43.0899    -710.978E-03         6.71507
             877         44.4445         42.4774    -687.074E-03         6.86361
             878         43.8988         41.8554    -658.478E-03         7.00575
             879         43.3424         41.2245    -624.801E-03         7.14041
             880         42.7750         40.5855    -585.630E-03         7.26645
             881         42.1964         39.9393    -540.520E-03         7.38261
             882         41.6065         39.2868    -488.999E-03         7.48760
             883         41.0048         38.6290    -430.569E-03         7.58000
             884         40.3909         37.9670    -364.699E-03         7.65833
             885         39.7644         37.3020    -290.837E-03         7.72100
             886         39.1249         36.6351    -208.407E-03         7.76634
             887         38.4716         35.9677    -116.815E-03         7.79260
             888         37.8039         35.3011    -15.4573E-03         7.79792
             889         37.1213         34.6369     96.2655E-03         7.78040
             890         36.4230         33.9763     218.938E-03         7.73805
             891         35.7084         33.3211     353.105E-03         7.66882
             892         34.9769         32.6727     499.238E-03         7.57066
             893         34.2284         32.0326     657.699E-03         7.44150
             894         33.4626         31.4025     828.674E-03         7.27929
             895         32.6799         30.7838         1.01209         7.08209
             896         31.8815         30.1782         1.20753         6.84807
             897         31.0690         29.5872         1.41405         6.57561
             898         30.2454         29.0126         1.62999         6.26336
             899         29.4151         28.4560         1.85272         5.91033
             900         28.5844         27.9195         2.07827         5.51592
             901         27.7619         27.4056         2.30088         5.07999
             902         26.9592         26.9176         2.51244         4.60280
             903         26.1915         26.4599         2.70175         4.08481
             904         25.4782         26.0384         2.85384         3.52633
             905         24.8440         25.6614         2.94917         2.92678
             906         24.3197         25.3398         2.96304         2.28369
             907         23.9436         25.0873         2.86542         1.59134
             908         23.7635         24.9207         2.62115     838.915E-03
             909         23.8413         24.8604         2.18915     7.67473E-03
             910         61.3400         64.1902         19.2805         13.0140
             911         62.2452         64.7301         17.9514         13.2191
             912         63.1476         65.2867         16.3927         13.2509
             913         63.9640         65.8037         14.7042         13.0721
             914         64.6328         66.2282         12.9920         12.6868
             915         65.1208         66.5233         11.3456         12.1298
             916         65.4234         66.6742         9.82611         11.4509
             917         65.5557         66.6846         8.46557         10.7016
             918         65.5442         66.5712         7.27299         9.92631
             919         65.4182         66.3562         6.24222         9.15861
             920         65.2059         66.0632         5.35881         8.42154
             921         64.9315         65.7136         4.60495         7.72930
             922         64.6150         65.3259         3.96242         7.08945
             923         64.2719         64.9146         3.41423         6.50492
             924         63.9137         64.4911         2.94534         5.97564
             925         63.5491         64.0639         2.54280         5.49967
             926         63.1843         63.6391         2.19573         5.07406
             927         62.8236         63.2209         1.89501         4.69538
             928         62.4697         62.8120         1.63310         4.36001
             929         62.1244         62.4141         1.40379         4.06444
             930         61.7886         62.0282         1.20192         3.80530
             931         61.4627         61.6544         1.02325         3.57946
             932         61.1467         61.2926     864.269E-03         3.38409
             933         60.8401         60.9423     722.051E-03         3.21658
             934         60.5424         60.6027     594.171E-03         3.07461
             935         60.2530         60.2729     478.601E-03         2.95609
             936         59.9710         59.9521     373.640E-03         2.85914
             937         59.6956         59.6392     277.860E-03         2.78209
             938         59.4258         59.3331     190.056E-03         2.72345
             939         59.1609         59.0328     109.208E-03         2.68187
             940         58.9000         58.7372     34.4489E-03         2.65616
             941         58.6421         58.4453    -34.9577E-03         2.64525
             942         58.3865         58.1561    -99.6408E-03         2.64817
             943         58.1323         57.8686    -160.138E-03         2.66405
             944         57.8788         57.5819    -216.908E-03         2.69211
             945         57.6252         57.2950    -270.345E-03         2.73164
             946         57.3708         57.0070    -320.785E-03         2.78198
             947         57.1150         56.7172    -368.515E-03         2.84256
             948         56.8571         56.4248    -413.781E-03         2.91281
             949         56.5965         56.1289    -456.789E-03         2.99225
             950         56.3326         55.8288    -497.713E-03         3.08041
             951         56.0649         55.5240    -536.699E-03         3.17684
             952         55.7930         55.2136    -573.864E-03         3.28113
             953         55.5162         54.8972    -609.305E-03         3.39290
             954         55.2343         54.5740    -643.092E-03         3.51175
             955         54.9468         54.2436    -675.280E-03         3.63734
             956         54.6533         53.9055    -705.901E-03         3.76931
             957         54.3534         53.5592    -734.971E-03         3.90729
             958         54.0469         53.2042    -762.489E-03         4.05095
             959         53.7335         52.8402    -788.437E-03         4.19992
             960         53.4128         52.4667    -812.782E-03         4.35386
             961         53.0848         52.0835    -835.472E-03         4.51239
             962         52.7490         51.6903    -856.444E-03         4.67514
             963         52.4054         51.2867    -875.614E-03         4.84172
             964         52.0538         50.8727    -892.884E-03         5.01172
             965         51.6940         50.4479    -908.141E-03         5.18471
             966         51.3259         50.0123    -921.254E-03         5.36024
             967         50.9494         49.5658    -932.072E-03         5.53783
             968         50.5643         49.1084    -940.428E-03         5.71698
             969         50.1706         48.6399    -946.138E-03         5.89713
             970         49.7681         48.1606    -948.995E-03         6.07771
             971         49.3567         47.6704    -948.771E-03         6.25811
             972         48.9364         47.1695    -945.220E-03         6.43766
             973         48.5071         46.6582    -938.070E-03         6.61564
             974         48.0685         46.1366    -927.027E-03         6.79131
             975         47.6207         45.6051    -911.769E-03         6.96385
             976         47.1633         45.0641    -891.951E-03         7.13238
             977         46.6963         44.5140    -867.199E-03         7.29597
             978         46.2193         43.9552    -837.111E-03         7.45361
             979         45.7321         43.3883    -801.255E-03         7.60423
             980         45.2344         42.8140    -759.168E-03         7.74668
             981         44.7258         42.2329    -710.357E-03         7.87975
             982         44.2058         41.6458    -654.295E-03         8.00212
             983         43.6738         41.0534    -590.428E-03         8.11241
             984         43.1294         40.4566    -518.166E-03         8.20914
             985         42.5717         39.8565    -436.894E-03         8.29077
             986         42.0001         39.2538    -345.970E-03         8.35562
             987         41.4138         38.6497    -244.731E-03         8.40199
             988         40.8117         38.0453    -132.501E-03         8.42805
             989         40.1931         37.4416    -8.59951E-03         8.43191
             990         39.5571         36.8400     127.643E-03         8.41161
             991         38.9025         36.2414     276.864E-03         8.36513
             992         38.2287         35.6472     439.646E-03         8.29041
             993         37.5350         35.0586     616.475E-03         8.18536
             994         36.8207         34.4768     807.694E-03         8.04792
             995         36.0858         33.9031         1.01343         7.87603
             996         35.3306         33.3388         1.23352         7.66773
             997         34.5562         32.7851         1.46738         7.42116
             998         33.7643         32.2434         1.71386         7.13465
             999         32.9580         31.7153         1.97102         6.80671
            1000         32.1418         31.2025         2.23593         6.43609
            1001         31.3222         30.7070         2.50426         6.02182
            1002         30.5077         30.2315         2.76998         5.56310
            1003         29.7100         29.7796         3.02481         5.05922
            1004         28.9439         29.3559         3.25772         4.50929
            1005         28.2282         28.9664         3.45445         3.91180
            1006         27.5867         28.6194         3.59696         3.26395
            1007         27.0487         28.3249         3.66325         2.56073
            1008         26.6506         28.0954         3.62733         1.79382
            1009         26.4375         27.9455         3.45973     950.045E-03
            1010         26.4669         27.8916         3.12724     9.19651E-03
            1011         60.3535         63.3752         19.0309         12.5172
            1012         61.1650         63.8676         17.8308         12.6881
            1013         61.9829         64.3760         16.4470         12.7266
            1014         62.7478         64.8608         14.9486         12.6027
            1015         63.4116         65.2827         13.4118         12.3136
            1016         63.9429         65.6111         11.9055         11.8782
            1017         64.3293         65.8284         10.4821         11.3288
            1018         64.5741         65.9309         9.17474         10.7028
            1019         64.6909         65.9253         7.99930         10.0355
            1020         64.6989         65.8250         6.95836         9.35646
            1021         64.6185         65.6462         6.04594         8.68830
            1022         64.4691         65.4056         5.25123         8.04683
            1023         64.2679         65.1186         4.56137         7.44225
            1024         64.0292         64.7983         3.96314         6.88037
            1025         63.7646         64.4558         3.44403         6.36385
            1026         63.4831         64.0999         2.99271         5.89313
            1027         63.1917         63.7372         2.59920         5.46724
            1028         62.8956         63.3729         2.25490         5.08435
            1029         62.5987         63.0107         1.95246         4.74210
            1030         62.3036         62.6532         1.68565         4.43794
            1031         62.0121         62.3021         1.44921         4.16925
            1032         61.7256         61.9584         1.23873         3.93347
            1033         61.4445         61.6227         1.05049         3.72816
            1034         61.1693         61.2952     881.339E-03         3.55104
            1035         60.9000         60.9756     728.653E-03         3.40000
            1036         60.6363         60.6636     590.195E-03         3.27309
            1037         60.3779         60.3587     464.080E-03         3.16856
            1038         60.1245         60.0602     348.704E-03         3.08479
            1039         59.8753         59.7673     242.707E-03         3.02033
            1040         59.6299         59.4794     144.928E-03         2.97386
            1041         59.3877         59.1955     54.3737E-03         2.94419
            1042         59.1480         58.9149    -29.8029E-03         2.93024
            1043         58.9102         58.6368    -108.330E-03         2.93102
            1044         58.6738         58.3604    -181.833E-03         2.94565
            1045         58.4380         58.0849    -250.847E-03         2.97331
            1046         58.2024         57.8094    -315.834E-03         3.01327
            1047         57.9664         57.5333    -377.189E-03         3.06485
            1048         57.7293         57.2558    -435.250E-03         3.12742
            1049         57.4908         56.9762    -490.307E-03         3.20040
            1050         57.2502         56.6938    -542.606E-03         3.28327
            1051         57.0072         56.4081    -592.352E-03         3.37551
            1052         56.7613         56.1183    -639.718E-03         3.47667
            1053         56.5120         55.8240    -684.845E-03         3.58629
            1054         56.2590         55.5246    -727.846E-03         3.70394
            1055         56.0020         55.2195    -768.807E-03         3.82923
            1056         55.7405         54.9082    -807.791E-03         3.96174
            1057         55.4743         54.5904    -844.837E-03         4.10109
            1058         55.2031         54.2655    -879.966E-03         4.24690
            1059         54.9266         53.9333    -913.174E-03         4.39877
            1060         54.6445         53.5932    -944.440E-03         4.55633
            1061         54.3567         53.2451    -973.724E-03         4.71918
            1062         54.0628         52.8886        -1.00096         4.88691
            1063         53.7628         52.5234        -1.02608         5.05913
            1064         53.4565         52.1494        -1.04898         5.23539
            1065         53.1436         51.7663        -1.06955         5.41525
            1066         52.8240         51.3740        -1.08764         5.59825
            1067         52.4976         50.9724        -1.10310         5.78389
            1068         52.1642         50.5615        -1.11575         5.97165
            1069         51.8237         50.1411        -1.12539         6.16098
            1070         51.4759         49.7113        -1.13180         6.35129
            1071         51.1208         49.2721        -1.13474         6.54197
            1072         50.7580         48.8237        -1.13393         6.73233
            1073         50.3875         48.3662        -1.12909         6.92168
            1074         50.0090         47.8997        -1.11989         7.10925
            1075         49.6224         47.4246        -1.10597         7.29423
            1076         49.2272         46.9410        -1.08698         7.47575
            1077         48.8234         46.4493        -1.06249         7.65289
            1078         48.4104         45.9500        -1.03207         7.82464
            1079         47.9879         45.4434    -995.244E-03         7.98997
            1080         47.5555         44.9300    -951.514E-03         8.14772
            1081         47.1125         44.4104    -900.338E-03         8.29671
            1082         46.6584         43.8852    -841.145E-03         8.43564
            1083         46.1926         43.3549    -773.327E-03         8.56316
            1084         45.7143         42.8203    -696.245E-03         8.67783
            1085         45.2225         42.2822    -609.225E-03         8.77812
            1086         44.7165         41.7412    -511.566E-03         8.86242
            1087         44.1952         41.1982    -402.542E-03         8.92903
            1088         43.6576         40.6541    -281.408E-03         8.97619
            1089         43.1025         40.1097    -147.411E-03         9.00204
            1090         42.5289         39.5659     203.139E-06         9.00466
            1091         41.9355         39.0238     162.162E-03         8.98205
            1092         41.3213         38.4842     339.152E-03         8.93220
            1093         40.6852         37.9481     531.785E-03         8.85300
            1094         40.0265         37.4164     740.556E-03         8.74238
            1095         39.3445         36.8903     965.790E-03         8.59823
            1096         38.6391         36.3707         1.20757         8.41850
            1097         37.9105         35.8586         1.46564         8.20118
            1098         37.1599         35.3552         1.73930         7.94435
            1099         36.3891         34.8617         2.02724         7.64619
            1100         35.6013         34.3796         2.32735         7.30503
            1101         34.8009         33.9106         2.63651         6.91930
            1102         33.9944         33.4568         2.95027         6.48751
            1103         33.1904         33.0211         3.26255         6.00818
            1104         32.3999         32.6070         3.56524         5.47962
            1105         31.6375         32.2192         3.84787         4.89966
            1106         30.9211         31.8638         4.09722         4.26519
            1107         30.2733         31.5484         4.29709         3.57159
            1108         29.7218         31.2823         4.42823         2.81188
            1109         29.3011         31.0763         4.46856         1.97588
            1110         29.0536         30.9428         4.39373         1.04899
            1111         29.0329         30.8953         4.17718     10.4038E-03
            1112         59.5149         62.7041         18.8259         12.0591
            1113         60.2527         63.1590         17.7262         12.2022
            1114         61.0020         63.6285         16.4771         12.2417
            1115         61.7192         64.0838         15.1284         12.1538
            1116         62.3668         64.4956         13.7359         11.9327
            1117         62.9172         64.8386         12.3525         11.5882
            1118         63.3553         65.0962         11.0220         11.1413
            1119         63.6777         65.2609         9.77529         10.6184
            1120         63.8898         65.3336         8.63086         10.0469
            1121         64.0027         65.3211         7.59640         9.45161
            1122         64.0305         65.2341         6.67176         8.85303
            1123         63.9878         65.0848         5.85160         8.26691
            1124         63.8886         64.8852         5.12765         7.70454
            1125         63.7452         64.6467         4.49028         7.17346
            1126         63.5683         64.3792         3.92963         6.67819
            1127         63.3667         64.0911         3.43620         6.22104
            1128         63.1476         63.7891         3.00129         5.80269
            1129         62.9165         63.4788         2.61706         5.42271
            1130         62.6780         63.1643         2.27664         5.07995
            1131         62.4353         62.8489         1.97402         4.77282
            1132         62.1909         62.5350         1.70404         4.49947
            1133         61.9466         62.2242         1.46225         4.25796
            1134         61.7039         61.9175         1.24486         4.04631
            1135         61.4634         61.6158         1.04861         3.86261
            1136         61.2257         61.3192     870.732E-03         3.70503
            1137         60.9912         61.0279     708.845E-03         3.57184
            1138         60.7598         60.7418     560.921E-03         3.46143
            1139         60.5314         60.4604     425.222E-03         3.37231
            1140         60.3059         60.1835     300.255E-03         3.30311
            1141         60.0830         59.9105     184.740E-03         3.25256
            1142         59.8624         59.6409     77.5751E-03         3.21950
            1143         59.6436         59.3740    -22.1881E-03         3.20287
            1144         59.4263         59.1092    -115.368E-03         3.20170
            1145         59.2101         58.8460    -202.670E-03         3.21509
            1146         58.9944         58.5836    -284.702E-03         3.24223
            1147         58.7789         58.3215    -361.991E-03         3.28237
            1148         58.5632         58.0590    -434.986E-03         3.33480
            1149         58.3469         57.7954    -504.077E-03         3.39888
            1150         58.1295         57.5303    -569.596E-03         3.47402
            1151         57.9107         57.2630    -631.826E-03         3.55964
            1152         57.6900         56.9930    -691.005E-03         3.65523
            1153         57.4673         56.7197    -747.331E-03         3.76029
            1154         57.2420         56.4426    -800.969E-03         3.87434
            1155         57.0140         56.1613    -852.049E-03         3.99693
            1156         56.7828         55.8752    -900.670E-03         4.12762
            1157         56.5484         55.5841    -946.906E-03         4.26598
            1158         56.3102         55.2874    -990.802E-03         4.41159
            1159         56.0682         54.9848        -1.03238         4.56404
            1160         55.8222         54.6759        -1.07164         4.72292
            1161         55.5718         54.3605        -1.10855         4.88779
            1162         55.3169         54.0382        -1.14306         5.05825
            1163         55.0573         53.7088        -1.17511         5.23385
            1164         54.7929         53.3721        -1.20460         5.41416
            1165         54.5234         53.0278        -1.23142         5.59870
            1166         54.2488         52.6759        -1.25543         5.78699
            1167         53.9687         52.3162        -1.27646         5.97855
            1168         53.6831         51.9486        -1.29434         6.17282
            1169         53.3918         51.5730        -1.30885         6.36926
            1170         53.0947         51.1894        -1.31977         6.56728
            1171         52.7914         50.7979        -1.32683         6.76624
            1172         52.4819         50.3985        -1.32976         6.96549
            1173         52.1658         49.9913        -1.32823         7.16432
            1174         51.8430         49.5764        -1.32190         7.36197
            1175         51.5131         49.1540        -1.31041         7.55764
            1176         51.1757         48.7243        -1.29335         7.75048
            1177         50.8306         48.2875        -1.27028         7.93956
            1178         50.4772         47.8441        -1.24073         8.12393
            1179         50.1152         47.3942        -1.20421         8.30252
            1180         49.7438         46.9383        -1.16016         8.47426
            1181         49.3625         46.4768        -1.10802         8.63795
            1182         48.9707         46.0102        -1.04717         8.79235
            1183         48.5674         45.5389    -976.958E-03         8.93613
            1184         48.1519         45.0635    -896.697E-03         9.06789
            1185         47.7232         44.5846    -805.667E-03         9.18615
            1186         47.2803         44.1027    -703.111E-03         9.28935
            1187         46.8220         43.6185    -588.248E-03         9.37582
            1188         46.3472         43.1328    -460.269E-03         9.44387
            1189         45.8546         42.6461    -318.352E-03         9.49167
            1190         45.3429         42.1591    -161.671E-03         9.51736
            1191         44.8108         41.6727     10.5932E-03         9.51898
            1192         44.2570         41.1875     199.224E-03         9.49455
            1193         43.6803         40.7042     404.953E-03         9.44200
            1194         43.0796         40.2238     628.421E-03         9.35925
            1195         42.4540         39.7468     870.133E-03         9.24419
            1196         41.8029         39.2742         1.13040         9.09470
            1197         41.1260         38.8067         1.40928         8.90868
            1198         40.4238         38.3453         1.70646         8.68406
            1199         39.6971         37.8910         2.02116         8.41880
            1200         38.9480         37.4450         2.35199         8.11093
            1201         38.1796         37.0085         2.69677         7.75849
            1202         37.3964         36.5835         3.05233         7.35956
            1203         36.6047         36.1720         3.41426         6.91212
            1204         35.8126         35.7768         3.77667         6.41396
            1205         35.0311         35.4017         4.13190         5.86248
            1206         34.2738         35.0510         4.47025         5.25435
            1207         33.5579         34.7307         4.77981         4.58513
            1208         32.9045         34.4476         5.04631         3.84874
            1209         32.3400         34.2100         5.25325         3.03673
            1210         31.8967         34.0274         5.38215         2.13766
            1211         31.6149         33.9100         5.41319         1.13612
            1212         31.5447         33.8685         5.32546     11.3497E-03
            1213         58.7947         62.1473         18.6561         11.6320
            1214         59.4736         62.5720         17.6360         11.7521
            1215         60.1667         63.0097         16.4931         11.7899
            1216         60.8414         63.4391         15.2638         11.7260
            1217         61.4683         63.8377         13.9899         11.5538
            1218         62.0238         64.1851         12.7127         11.2780
            1219         62.4927         64.4664         11.4679         10.9119
            1220         62.8679         64.6726         10.2832         10.4742
            1221         63.1499         64.8015         9.17709         9.98567
            1222         63.3441         64.8557         8.15999         9.46656
            1223         63.4595         64.8416         7.23545         8.93463
            1224         63.5064         64.7674         6.40211         8.40454
            1225         63.4957         64.6425         5.65538         7.88764
            1226         63.4374         64.4759         4.98877         7.39224
            1227         63.3410         64.2762         4.39489         6.92402
            1228         63.2145         64.0510         3.86617         6.48658
            1229         63.0647         63.8067         3.39525         6.08187
            1230         62.8973         63.5489         2.97528         5.71065
            1231         62.7169         63.2818         2.60003         5.37280
            1232         62.5273         63.0091         2.26393         5.06763
            1233         62.3314         62.7335         1.96204         4.79402
            1234         62.1314         62.4570         1.69004         4.55065
            1235         61.9291         62.1814         1.44416         4.33604
            1236         61.7258         61.9075         1.22112         4.14868
            1237         61.5224         61.6362         1.01810         3.98705
            1238         61.3195         61.3680     832.634E-03         3.84968
            1239         61.1177         61.1030     662.598E-03         3.73515
            1240         60.9172         60.8411     506.156E-03         3.64212
            1241         60.7179         60.5824     361.719E-03         3.56933
            1242         60.5201         60.3266     227.909E-03         3.51559
            1243         60.3235         60.0733     103.534E-03         3.47981
            1244         60.1280         59.8222    -12.4387E-03         3.46098
            1245         59.9334         59.5728    -120.907E-03         3.45814
            1246         59.7394         59.3246    -222.647E-03         3.47042
            1247         59.5459         59.0772    -318.334E-03         3.49702
            1248         59.3525         58.8301    -408.549E-03         3.53717
            1249         59.1590         58.5828    -493.798E-03         3.59018
            1250         58.9651         58.3348    -574.514E-03         3.65539
            1251         58.7704         58.0855    -651.071E-03         3.73219
            1252         58.5748         57.8346    -723.786E-03         3.82000
            1253         58.3779         57.5815    -792.929E-03         3.91828
            1254         58.1795         57.3259    -858.723E-03         4.02650
            1255         57.9794         57.0671    -921.353E-03         4.14417
            1256         57.7772         56.8050    -980.967E-03         4.27082
            1257         57.5729         56.5389        -1.03768         4.40598
            1258         57.3661         56.2687        -1.09157         4.54920
            1259         57.1566         55.9939        -1.14268         4.70004
            1260         56.9443         55.7142        -1.19106         4.85804
            1261         56.7290         55.4294        -1.23668         5.02277
            1262         56.5105         55.1391        -1.27952         5.19379
            1263         56.2886         54.8431        -1.31952         5.37064
            1264         56.0631         54.5412        -1.35660         5.55286
            1265         55.8339         54.2332        -1.39065         5.73996
            1266         55.6009         53.9189        -1.42155         5.93147
            1267         55.3638         53.5982        -1.44912         6.12686
            1268         55.1225         53.2710        -1.47319         6.32561
            1269         54.8767         52.9372        -1.49354         6.52714
            1270         54.6264         52.5968        -1.50994         6.73087
            1271         54.3712         52.2498        -1.52212         6.93618
            1272         54.1109         51.8962        -1.52978         7.14240
            1273         53.8453         51.5360        -1.53260         7.34883
            1274         53.5740         51.1694        -1.53021         7.55473
            1275         53.2967         50.7964        -1.52223         7.75930
            1276         53.0130         50.4172        -1.50824         7.96172
            1277         52.7225         50.0321        -1.48777         8.16107
            1278         52.4248         49.6411        -1.46033         8.35643
            1279         52.1191         49.2446        -1.42540         8.54676
            1280         51.8050         48.8429        -1.38239         8.73100
            1281         51.4817         48.4363        -1.33070         8.90800
            1282         51.1484         48.0252        -1.26969         9.07655
            1283         50.8043         47.6098        -1.19866         9.23537
            1284         50.4485         47.1908        -1.11689         9.38311
            1285         50.0799         46.7684        -1.02361         9.51832
            1286         49.6974         46.3431    -918.026E-03         9.63949
            1287         49.2998         45.9155    -799.297E-03         9.74504
            1288         48.8859         45.4861    -666.563E-03         9.83328
            1289         48.4542         45.0553    -518.939E-03         9.90249
            1290         48.0034         44.6238    -355.529E-03         9.95084
            1291         47.5322         44.1920    -175.436E-03         9.97643
            1292         47.0389         43.7606     22.2190E-03         9.97732
            1293         46.5223         43.3301     238.276E-03         9.95148
            1294         45.9810         42.9011     473.510E-03         9.89687
            1295         45.4139         42.4741     728.593E-03         9.81137
            1296         44.8200         42.0499         1.00405         9.69284
            1297         44.1987         41.6290         1.30020         9.53915
            1298         43.5498         41.2122         1.61708         9.34812
            1299         42.8735         40.8003         1.95437         9.11759
            1300         42.1710         40.3941         2.31127         8.84540
            1301         41.4441         39.9949         2.68638         8.52934
            1302         40.6960         39.6038         3.07754         8.16720
            1303         39.9310         39.2227         3.48167         7.75663
            1304         39.1551         38.8538         3.89456         7.29508
            1305         38.3763         38.4997         4.31069         6.77967
            1306         37.6049         38.1640         4.72300         6.20695
            1307         36.8538         37.8510         5.12278         5.57261
            1308         36.1392         37.5660         5.49952         4.87112
            1309         35.4810         37.3153         5.84094         4.09525
            1310         34.9041         37.1060         6.13312         3.23552
            1311         34.4392         36.9461         6.36087         2.27968
            1312         34.1241         36.8440         6.50832         1.21197
            1313         34.0063         36.8081         6.55923     12.0349E-03
            1314         58.1709         61.6828         18.5147         11.2300
            1315         58.8021         62.0830         17.5588         11.3310
            1316         59.4489         62.4946         16.5006         11.3655
            1317         60.0866         62.9015         15.3678         11.3179
            1318         60.6917         63.2861         14.1920         11.1817
            1319         61.2444         63.6323         13.0057         10.9582
            1320         61.7304         63.9267         11.8380         10.6561
            1321         62.1413         64.1605         10.7130         10.2884
            1322         62.4742         64.3297         9.64831         9.87085
            1323         62.7309         64.4342         8.65510         9.41947
            1324         62.9165         64.4773         7.73921         8.94930
            1325         63.0378         64.4645         6.90202         8.47342
            1326         63.1028         64.4024         6.14173         8.00260
            1327         63.1196         64.2981         5.45441         7.54524
            1328         63.0958         64.1588         4.83487         7.10761
            1329         63.0385         63.9909         4.27731         6.69408
            1330         62.9540         63.8004         3.77578         6.30753
            1331         62.8477         63.5924         3.32448         5.94962
            1332         62.7241         63.3713         2.91791         5.62109
            1333         62.5872         63.1407         2.55105         5.32202
            1334         62.4400         62.9036         2.21933         5.05198
            1335         62.2851         62.6623         1.91864         4.81020
            1336         62.1245         62.4186         1.64535         4.59572
            1337         61.9599         62.1741         1.39625         4.40741
            1338         61.7926         61.9297         1.16851         4.24410
            1339         61.6235         61.6862     959.660E-03         4.10458
            1340         61.4533         61.4441     767.524E-03         3.98765
            1341         61.2826         61.2036     590.207E-03         3.89214
            1342         61.1118         60.9650     426.056E-03         3.81693
            1343         60.9410         60.7282     273.624E-03         3.76095
            1344         60.7705         60.4931     131.650E-03         3.72319
            1345         60.6002         60.2594    -967.495E-06         3.70268
            1346         60.4303         60.0271    -125.190E-03         3.69854
            1347         60.2605         59.7956    -241.855E-03         3.70992
            1348         60.0909         59.5648    -351.691E-03         3.73603
            1349         59.9213         59.3343    -455.334E-03         3.77612
            1350         59.7515         59.1036    -553.334E-03         3.82952
            1351         59.5814         58.8724    -646.166E-03         3.89555
            1352         59.4109         58.6403    -734.241E-03         3.97361
            1353         59.2397         58.4070    -817.908E-03         4.06311
            1354         59.0677         58.1720    -897.465E-03         4.16349
            1355         58.8948         57.9350    -973.160E-03         4.27422
            1356         58.7207         57.6956        -1.04520         4.39480
            1357         58.5452         57.4534        -1.11374         4.52471
            1358         58.3683         57.2082        -1.17891         4.66349
            1359         58.1898         56.9597        -1.24079         4.81065
            1360         58.0094         56.7075        -1.29946         4.96574
            1361         57.8271         56.4513        -1.35492         5.12829
            1362         57.6427         56.1910        -1.40718         5.29783
            1363         57.4560         55.9262        -1.45619         5.47389
            1364         57.2670         55.6569        -1.50190         5.65599
            1365         57.0754         55.3827        -1.54420         5.84365
            1366         56.8811         55.1036        -1.58298         6.03636
            1367         56.6839         54.8194        -1.61808         6.23361
            1368         56.4836         54.5300        -1.64933         6.43485
            1369         56.2801         54.2353        -1.67650         6.63952
            1370         56.0731         53.9352        -1.69938         6.84703
            1371         55.8625         53.6298        -1.71767         7.05676
            1372         55.6478         53.3190        -1.73109         7.26805
            1373         55.4290         53.0028        -1.73929         7.48022
            1374         55.2055         52.6813        -1.74191         7.69254
            1375         54.9771         52.3546        -1.73855         7.90422
            1376         54.7433         52.0228        -1.72876         8.11445
            1377         54.5037         51.6861        -1.71208         8.32236
            1378         54.2577         51.3445        -1.68798         8.52701
            1379         54.0048         50.9983        -1.65592         8.72744
            1380         53.7442         50.6476        -1.61530         8.92260
            1381         53.4753         50.2928        -1.56549         9.11138
            1382         53.1972         49.9342        -1.50580         9.29262
            1383         52.9090         49.5719        -1.43553         9.46508
            1384         52.6097         49.2063        -1.35391         9.62744
            1385         52.2982         48.8378        -1.26014         9.77833
            1386         51.9735         48.4666        -1.15338         9.91628
            1387         51.6342         48.0933        -1.03275         10.0398
            1388         51.2790         47.7180    -897.335E-03         10.1472
            1389         50.9065         47.3414    -746.202E-03         10.2369
            1390         50.5152         46.9636    -578.390E-03         10.3070
            1391         50.1036         46.5853    -392.931E-03         10.3558
            1392         49.6703         46.2067    -188.863E-03         10.3814
            1393         49.2136         45.8283     34.7585E-03         10.3818
            1394         48.7322         45.4505     278.826E-03         10.3549
            1395         48.2246         45.0738     544.163E-03         10.2988
            1396         47.6896         44.6987     831.481E-03         10.2112
            1397         47.1263         44.3255         1.14134         10.0900
            1398         46.5340         43.9550         1.47407         9.93307
            1399         45.9125         43.5876         1.82975         9.73808
            1400         45.2621         43.2240         2.20807         9.50279
            1401         44.5839         42.8652         2.60826         9.22487
            1402         43.8796         42.5121         3.02901         8.90189
            1403         43.1523         42.1662         3.46825         8.53133
            1404         42.4062         41.8289         3.92311         8.11043
            1405         41.6471         41.5025         4.38970         7.63616
            1406         40.8824         41.1896         4.86300         7.10500
            1407         40.1219         40.8935         5.33672         6.51276
            1408         39.3778         40.6181         5.80320         5.85432
            1409         38.6652         40.3682         6.25339         5.12326
            1410         38.0031         40.1493         6.67693         4.31153
            1411         37.4149         39.9675         7.06234         3.40893
            1412         36.9296         39.8295         7.39737         2.40275
            1413         36.5833         39.7419         7.66955         1.27722
            1414         36.4210         39.7114         7.86652     12.5792E-03
            1415         57.6270         61.2940         18.3964         10.8486
            1416         58.2191         61.6741         17.4930         10.9336
            1417         58.8277         62.0641         16.5035         10.9643
            1418         59.4333         62.4516         15.4493         10.9279
            1419         60.0173         62.8229         14.3550         10.8183
            1420         60.5630         63.1647         13.2463         10.6354
            1421         61.0575         63.4657         12.1470         10.3842
            1422         61.4920         63.7176         11.0777         10.0740
            1423         61.8619         63.9156         10.0545         9.71662
            1424         62.1665         64.0580         9.08863         9.32462
            1425         62.4080         64.1460         8.18698         8.91047
            1426         62.5907         64.1829         7.35272         8.48553
            1427         62.7200         64.1732         6.58608         8.05962
            1428         62.8020         64.1224         5.88512         7.64082
            1429         62.8429         64.0361         5.24651         7.23550
            1430         62.8487         63.9197         4.66602         6.84848
            1431         62.8248         63.7786         4.13900         6.48319
            1432         62.7762         63.6173         3.66069         6.14195
            1433         62.7072         63.4400         3.22642         5.82618
            1434         62.6215         63.2502         2.83175         5.53657
            1435         62.5225         63.0509         2.47253         5.27328
            1436         62.4126         62.8447         2.14499         5.03608
            1437         62.2943         62.6335         1.84570         4.82443
            1438         62.1693         62.4190         1.57157         4.63762
            1439         62.0392         62.2025         1.31985         4.47479
            1440         61.9051         61.9849         1.08810         4.33501
            1441         61.7681         61.7670     874.150E-03         4.21732
            1442         61.6288         61.5494     676.081E-03         4.12072
            1443         61.4880         61.3323     492.207E-03         4.04427
            1444         61.3460         61.1159     321.041E-03         3.98700
            1445         61.2032         60.9005     161.274E-03         3.94800
            1446         61.0598         60.6858     11.7561E-03         3.92640
            1447         60.9161         60.4719    -128.523E-03         3.92136
            1448         60.7721         60.2586    -260.449E-03         3.93208
            1449         60.6278         60.0457    -384.796E-03         3.95782
            1450         60.4834         59.8330    -502.243E-03         3.99785
            1451         60.3387         59.6202    -613.378E-03         4.05150
            1452         60.1938         59.4071    -718.714E-03         4.11813
            1453         60.0485         59.1933    -818.692E-03         4.19712
            1454         59.9029         58.9786    -913.692E-03         4.28788
            1455         59.7568         58.7626        -1.00403         4.38986
            1456         59.6101         58.5452        -1.08999         4.50252
            1457         59.4627         58.3260        -1.17177         4.62533
            1458         59.3147         58.1047        -1.24957         4.75779
            1459         59.1657         57.8810        -1.32351         4.89941
            1460         59.0158         57.6548        -1.39369         5.04968
            1461         58.8648         57.4257        -1.46017         5.20813
            1462         58.7127         57.1936        -1.52298         5.37428
            1463         58.5592         56.9582        -1.58210         5.54764
            1464         58.4043         56.7194        -1.63749         5.72772
            1465         58.2479         56.4769        -1.68909         5.91402
            1466         58.0898         56.2307        -1.73677         6.10604
            1467         57.9298         55.9806        -1.78041         6.30323
            1468         57.7678         55.7265        -1.81983         6.50508
            1469         57.6035         55.4683        -1.85483         6.71100
            1470         57.4369         55.2059        -1.88518         6.92041
            1471         57.2676         54.9394        -1.91060         7.13271
            1472         57.0954         54.6686        -1.93079         7.34723
            1473         56.9199         54.3936        -1.94542         7.56331
            1474         56.7409         54.1144        -1.95411         7.78022
            1475         56.5579         53.8311        -1.95646         7.99721
            1476         56.3706         53.5437        -1.95201         8.21349
            1477         56.1783         53.2524        -1.94028         8.42820
            1478         55.9807         52.9571        -1.92074         8.64044
            1479         55.7770         52.6582        -1.89283         8.84928
            1480         55.5665         52.3557        -1.85592         9.05370
            1481         55.3486         52.0498        -1.80938         9.25264
            1482         55.1223         51.7407        -1.75249         9.44498
            1483         54.8868         51.4286        -1.68452         9.62951
            1484         54.6410         51.1138        -1.60468         9.80500
            1485         54.3838         50.7965        -1.51213         9.97010
            1486         54.1140         50.4770        -1.40601         10.1234
            1487         53.8304         50.1555        -1.28539         10.2635
            1488         53.5317         49.8323        -1.14933         10.3888
            1489         53.2162         49.5078    -996.834E-03         10.4977
            1490         52.8826         49.1821    -826.896E-03         10.5884
            1491         52.5294         48.8556    -638.483E-03         10.6593
            1492         52.1548         48.5286    -430.556E-03         10.7085
            1493         51.7573         48.2014    -202.086E-03         10.7342
            1494         51.3353         47.8742     47.9344E-03         10.7342
            1495         50.8874         47.5475     320.457E-03         10.7066
            1496         50.4120         47.2215     616.358E-03         10.6494
            1497         49.9081         46.8966     936.401E-03         10.5603
            1498         49.3744         46.5731         1.28119         10.4372
            1499         48.8105         46.2516         1.65111         10.2777
            1500         48.2160         45.9325         2.04629         10.0797
            1501         47.5914         45.6164         2.46648         9.84055
            1502         46.9374         45.3041         2.91101         9.55789
            1503         46.2560         44.9967         3.37869         9.22905
            1504         45.5499         44.6953         3.86767         8.85118
            1505         44.8232         44.4016         4.37534         8.42115
            1506         44.0813         44.1175         4.89827         7.93546
            1507         43.3313         43.8455         5.43202         7.39004
            1508         42.5823         43.5886         5.97112         6.78008
            1509         41.8458         43.3503         6.50904         6.09979
            1510         41.1361         43.1349         7.03819         5.34210
            1511         40.4711         42.9471         7.55002         4.49834
            1512         39.8729         42.7919         8.03530         3.55786
            1513         39.3691         42.6748         8.48437         2.50777
            1514         38.9941         42.6010         8.88772         1.33248
            1515         38.7910         42.5755         9.23629     12.9605E-03
            1516         57.1501         60.9683         18.2974         10.4843
            1517         57.7100         61.3316         17.4371         10.5557
            1518         58.2867         61.7038         16.5038         10.5824
            1519         58.8648         62.0747         15.5144         10.5538
            1520         59.4292         62.4336         14.4881         10.4644
            1521         59.9660         62.7697         13.4456         10.3130
            1522         60.4635         63.0733         12.4064         10.1027
            1523         60.9133         63.3368         11.3881         9.83997
            1524         61.3100         63.5553         10.4048         9.53343
            1525         61.6512         63.7262         9.46756         9.19306
            1526         61.9373         63.8494         8.58351         8.82903
            1527         62.1703         63.9264         7.75690         8.45101
            1528         62.3539         63.9604         6.98934         8.06774
            1529         62.4923         63.9551         6.28042         7.68672
            1530         62.5904         63.9150         5.62828         7.31413
            1531         62.6530         63.8445         5.03003         6.95490
            1532         62.6847         63.7482         4.48221         6.61279
            1533         62.6899         63.6300         3.98101         6.29054
            1534         62.6726         63.4938         3.52257         5.99004
            1535         62.6363         63.3430         3.10306         5.71250
            1536         62.5841         63.1804         2.71884         5.45854
            1537         62.5187         63.0086         2.36648         5.22837
            1538         62.4424         62.8297         2.04280         5.02188
            1539         62.3572         62.6455         1.74492         4.83869
            1540         62.2648         62.4573         1.47020         4.67827
            1541         62.1666         62.2664         1.21627         4.53995
            1542         62.0636         62.0736     981.017E-03         4.42300
            1543         61.9569         61.8798     762.535E-03         4.32663
            1544         61.8473         61.6853     559.136E-03         4.25003
            1545         61.7353         61.4906     369.316E-03         4.19239
            1546         61.6215         61.2959     191.742E-03         4.15291
            1547         61.5064         61.1015     25.2332E-03         4.13079
            1548         61.3902         60.9072    -131.252E-03         4.12529
            1549         61.2732         60.7132    -278.636E-03         4.13565
            1550         61.1555         60.5194    -417.726E-03         4.16117
            1551         61.0374         60.3256    -549.232E-03         4.20118
            1552         60.9189         60.1318    -673.778E-03         4.25501
            1553         60.8001         59.9377    -791.904E-03         4.32205
            1554         60.6811         59.7431    -904.077E-03         4.40170
            1555         60.5619         59.5480        -1.01070         4.49336
            1556         60.4424         59.3520        -1.11212         4.59650
            1557         60.3227         59.1549        -1.20862         4.71056
            1558         60.2027         58.9566        -1.30043         4.83503
            1559         60.0825         58.7567        -1.38774         4.96938
            1560         59.9619         58.5552        -1.47071         5.11311
            1561         59.8409         58.3518        -1.54942         5.26572
            1562         59.7194         58.1464        -1.62394         5.42672
            1563         59.5975         57.9387        -1.69430         5.59561
            1564         59.4749         57.7286        -1.76047         5.77188
            1565         59.3516         57.5159        -1.82242         5.95503
            1566         59.2274         57.3006        -1.88005         6.14455
            1567         59.1023         57.0824        -1.93325         6.33990
            1568         58.9760         56.8614        -1.98185         6.54054
            1569         58.8485         56.6374        -2.02568         6.74591
            1570         58.7194         56.4103        -2.06450         6.95543
            1571         58.5887         56.1801        -2.09805         7.16849
            1572         58.4559         55.9468        -2.12604         7.38445
            1573         58.3209         55.7103        -2.14813         7.60265
            1574         58.1832         55.4707        -2.16395         7.82239
            1575         58.0425         55.2280        -2.17308         8.04292
            1576         57.8984         54.9823        -2.17508         8.26348
            1577         57.7503         54.7335        -2.16946         8.48325
            1578         57.5977         54.4818        -2.15567         8.70135
            1579         57.4400         54.2273        -2.13314         8.91687
            1580         57.2765         53.9701        -2.10124         9.12885
            1581         57.1064         53.7102        -2.05932         9.33626
            1582         56.9288         53.4480        -2.00665         9.53803
            1583         56.7429         53.1834        -1.94247         9.73301
            1584         56.5475         52.9167        -1.86598         9.91999
            1585         56.3417         52.6481        -1.77632         10.0977
            1586         56.1242         52.3777        -1.67259         10.2648
            1587         55.8937         52.1057        -1.55384         10.4199
            1588         55.6489         51.8323        -1.41909         10.5616
            1589         55.3883         51.5578        -1.26731         10.6882
            1590         55.1104         51.2823        -1.09744         10.7981
            1591         54.8135         51.0060    -908.404E-03         10.8897
            1592         54.4962         50.7290    -699.090E-03         10.9612
            1593         54.1566         50.4518    -468.392E-03         11.0107
            1594         53.7932         50.1743    -215.213E-03         11.0364
            1595         53.4044         49.8968     61.5199E-03         11.0363
            1596         52.9885         49.6196     362.824E-03         11.0082
            1597         52.5442         49.3429     689.638E-03         10.9503
            1598         52.0701         49.0668         1.04279         10.8601
            1599         51.5654         48.7918         1.42295         10.7356
            1600         51.0293         48.5181         1.83057         10.5743
            1601         50.4615         48.2462         2.26587         10.3738
            1602         49.8623         47.9767         2.72871         10.1317
            1603         49.2326         47.7103         3.21856         9.84516
            1604         48.5742         47.4478         3.73442         9.51137
            1605         47.8895         47.1905         4.27470         9.12719
            1606         47.1825         46.9398         4.83717         8.68916
            1607         46.4582         46.6975         5.41888         8.19335
            1608         45.7232         46.4658         6.01607         7.63521
            1609         44.9862         46.2475         6.62413         7.00944
            1610         44.2579         46.0457         7.23767         6.30972
            1611         43.5519         45.8639         7.85049         5.52848
            1612         42.8850         45.7061         8.45578         4.65665
            1613         42.2783         45.5765         9.04630         3.68335
            1614         41.7582         45.4792         9.61474         2.59568
            1615         41.3576         45.4184         10.1541         1.37839
            1616         41.1178         45.3975         10.6582     13.2214E-03
            1617         56.7299         60.6955         18.2146         10.1342
            1618         57.2633         61.0450         17.3900         10.1940
            1619         57.8134         61.4021         16.5031         10.2168
            1620         58.3680         61.7589         15.5673         10.1937
            1621         58.9147         62.1067         14.5981         10.1197
            1622         59.4417         62.4366         13.6120         9.99331
            1623         59.9390         62.7403         12.6254         9.81607
            1624         60.3985         63.0112         11.6529         9.59245
            1625         60.8145         63.2443         10.7073         9.32893
            1626         61.1838         63.4368         9.79851         9.03325
            1627         61.5052         63.5875         8.93379         8.71366
            1628         61.7796         63.6970         8.11792         8.37829
            1629         62.0088         63.7671         7.35340         8.03477
            1630         62.1958         63.8005         6.64094         7.68990
            1631         62.3441         63.8004         5.97979         7.34948
            1632         62.4575         63.7705         5.36821         7.01836
            1633         62.5398         63.7145         4.80372         6.70039
            1634         62.5948         63.6358         4.28341         6.39856
            1635         62.6260         63.5379         3.80415         6.11507
            1636         62.6366         63.4239         3.36273         5.85150
            1637         62.6294         63.2964         2.95600         5.60885
            1638         62.6073         63.1580         2.58092         5.38770
            1639         62.5724         63.0108         2.23461         5.18826
            1640         62.5267         62.8565         1.91440         5.01050
            1641         62.4721         62.6968         1.61783         4.85415
            1642         62.4099         62.5328         1.34264         4.71881
            1643         62.3416         62.3657         1.08678         4.60395
            1644         62.2681         62.1963     848.413E-03         4.50899
            1645         62.1905         62.0252     625.862E-03         4.43327
            1646         62.1094         61.8529     417.636E-03         4.37613
            1647         62.0256         61.6800     222.399E-03         4.33687
            1648         61.9396         61.5066     38.9597E-03         4.31481
            1649         61.8519         61.3329    -133.742E-03         4.30927
            1650         61.7629         61.1592    -296.648E-03         4.31958
            1651         61.6728         60.9853    -450.590E-03         4.34507
            1652         61.5819         60.8114    -596.301E-03         4.38512
            1653         61.4905         60.6374    -734.427E-03         4.43910
            1654         61.3987         60.4632    -865.531E-03         4.50641
            1655         61.3067         60.2887    -990.102E-03         4.58648
            1656         61.2145         60.1138        -1.10856         4.67874
            1657         61.1223         59.9385        -1.22127         4.78265
            1658         61.0301         59.7624        -1.32852         4.89765
            1659         60.9379         59.5856        -1.43057         5.02323
            1660         60.8458         59.4078        -1.52761         5.15888
            1661         60.7539         59.2290        -1.61979         5.30408
            1662         60.6619         59.0489        -1.70722         5.45833
            1663         60.5701         58.8674        -1.78996         5.62112
            1664         60.4782         58.6844        -1.86803         5.79194
            1665         60.3863         58.4998        -1.94141         5.97028
            1666         60.2943         58.3135        -2.01004         6.15563
            1667         60.2020         58.1254        -2.07382         6.34744
            1668         60.1093         57.9354        -2.13263         6.54519
            1669         60.0162         57.7434        -2.18629         6.74831
            1670         59.9223         57.5493        -2.23459         6.95622
            1671         59.8276         57.3532        -2.27728         7.16833
            1672         59.7317         57.1550        -2.31407         7.38400
            1673         59.6343         56.9546        -2.34463         7.60259
            1674         59.5352         56.7520        -2.36861         7.82342
            1675         59.4340         56.5474        -2.38559         8.04577
            1676         59.3302         56.3406        -2.39513         8.26889
            1677         59.2233         56.1318        -2.39672         8.49198
            1678         59.1128         55.9210        -2.38983         8.71421
            1679         58.9980         55.7082        -2.37389         8.93470
            1680         58.8784         55.4935        -2.34826         9.15252
            1681         58.7531         55.2771        -2.31226         9.36669
            1682         58.6212         55.0590        -2.26517         9.57618
            1683         58.4820         54.8393        -2.20622         9.77989
            1684         58.3342         54.6181        -2.13459         9.97667
            1685         58.1770         54.3956        -2.04940         10.1653
            1686         58.0090         54.1718        -1.94974         10.3445
            1687         57.8289         53.9470        -1.83463         10.5130
            1688         57.6356         53.7212        -1.70306         10.6693
            1689         57.4274         53.4945        -1.55398         10.8120
            1690         57.2029         53.2671        -1.38628         10.9394
            1691         56.9604         53.0392        -1.19884         11.0501
            1692         56.6984         52.8107    -990.497E-03         11.1422
            1693         56.4151         52.5819    -760.081E-03         11.2141
            1694         56.1089         52.3528    -506.412E-03         11.2639
            1695         55.7781         52.1236    -228.319E-03         11.2896
            1696         55.4209         51.8944     75.3401E-03         11.2894
            1697         55.0359         51.6653     405.654E-03         11.2612
            1698         54.6215         51.4364     763.636E-03         11.2027
            1699         54.1766         51.2080         1.15019         11.1119
            1700         53.7000         50.9802         1.56607         10.9864
            1701         53.1912         50.7533         2.01183         10.8238
            1702         52.6496         50.5277         2.48780         10.6216
            1703         52.0757         50.3038         2.99400         10.3771
            1704         51.4702         50.0824         3.53007         10.0874
            1705         50.8346         49.8641         4.09526         9.74951
            1706         50.1714         49.6502         4.68830         9.35999
            1707         49.4842         49.4418         5.30739         8.91506
            1708         48.7777         49.2406         5.95011         8.41044
            1709         48.0581         49.0486         6.61340         7.84120
            1710         47.3334         48.8681         7.29357         7.20163
            1711         46.6139         48.7017         7.98630         6.48501
            1712         45.9123         48.5525         8.68675         5.68343
            1713         45.2448         48.4236         9.38970         4.78758
            1714         44.6313         48.3183         10.0897         3.78650
            1715         44.0973         48.2399         10.7816         2.66743
            1716         43.6744         48.1912         11.4605         1.41552
            1717         43.4023         48.1746         12.1225     13.3731E-03
            1718         56.3584         60.4677         18.1453         9.79595
            1719         56.8697         60.8055         17.3505         9.84584
            1720         57.3976         61.1501         16.5022         9.86482
            1721         57.9321         61.4949         15.6111         9.84560
            1722         58.4631         61.8328         14.6900         9.78368
            1723         58.9806         62.1565         13.7522         9.67719
            1724         59.4757         62.4590         12.8113         9.52689
            1725         59.9410         62.7343         11.8798         9.33580
            1726         60.3709         62.9780         10.9689         9.10871
            1727         60.7617         63.1868         10.0875         8.85163
            1728         61.1114         63.3593         9.24272         8.57121
            1729         61.4197         63.4951         8.43943         8.27427
            1730         61.6872         63.5952         7.68073         7.96733
            1731         61.9159         63.6613         6.96805         7.65647
            1732         62.1082         63.6959         6.30152         7.34702
            1733         62.2669         63.7017         5.68029         7.04358
            1734         62.3950         63.6817         5.10271         6.74997
            1735         62.4957         63.6390         4.56664         6.46926
            1736         62.5719         63.5764         4.06964         6.20386
            1737         62.6267         63.4967         3.60908         5.95557
            1738         62.6626         63.4026         3.18228         5.72567
            1739         62.6821         63.2962         2.78658         5.51504
            1740         62.6874         63.1797         2.41945         5.32417
            1741         62.6806         63.0549         2.07844         5.15330
            1742         62.6633         62.9233         1.76128         5.00241
            1743         62.6372         62.7863         1.46587         4.87133
            1744         62.6035         62.6449         1.19026         4.75975
            1745         62.5636         62.5002     932.666E-03         4.66724
            1746         62.5184         62.3529     691.482E-03         4.59333
            1747         62.4688         62.2037     465.241E-03         4.53748
            1748         62.4156         62.0531     252.624E-03         4.49911
            1749         62.3594         61.9015     52.4468E-03         4.47765
            1750         62.3009         61.7491    -136.355E-03         4.47249
            1751         62.2405         61.5963    -314.730E-03         4.48304
            1752         62.1787         61.4432    -483.521E-03         4.50869
            1753         62.1158         61.2899    -643.475E-03         4.54886
            1754         62.0521         61.1364    -795.253E-03         4.60298
            1755         61.9879         60.9827    -939.432E-03         4.67047
            1756         61.9235         60.8290        -1.07652         4.75078
            1757         61.8589         60.6750        -1.20694         4.84336
            1758         61.7944         60.5209        -1.33107         4.94768
            1759         61.7300         60.3664        -1.44923         5.06321
            1760         61.6660         60.2116        -1.56166         5.18944
            1761         61.6023         60.0563        -1.66857         5.32584
            1762         61.5390         59.9004        -1.77012         5.47191
            1763         61.4762         59.7439        -1.86640         5.62714
            1764         61.4138         59.5867        -1.95748         5.79103
            1765         61.3519         59.4287        -2.04338         5.96304
            1766         61.2904         59.2698        -2.12407         6.14268
            1767         61.2293         59.1100        -2.19948         6.32940
            1768         61.1684         58.9491        -2.26951         6.52267
            1769         61.1076         58.7872        -2.33400         6.72193
            1770         61.0469         58.6241        -2.39277         6.92662
            1771         60.9859         58.4599        -2.44559         7.13615
            1772         60.9246         58.2945        -2.49218         7.34990
            1773         60.8625         58.1279        -2.53222         7.56724
            1774         60.7995         57.9601        -2.56537         7.78750
            1775         60.7351         57.7910        -2.59123         8.00999
            1776         60.6689         57.6208        -2.60935         8.23399
            1777         60.6005         57.4494        -2.61924         8.45872
            1778         60.5293         57.2769        -2.62037         8.68338
            1779         60.4548         57.1033        -2.61217         8.90713
            1780         60.3762         56.9286        -2.59399         9.12908
            1781         60.2929         56.7530        -2.56516         9.34828
            1782         60.2040         56.5764        -2.52496         9.56376
            1783         60.1085         56.3990        -2.47261         9.77446
            1784         60.0056         56.2208        -2.40727         9.97930
            1785         59.8941         56.0419        -2.32806         10.1771
            1786         59.7729         55.8624        -2.23405         10.3667
            1787         59.6408         55.6823        -2.12426         10.5468
            1788         59.4963         55.5018        -1.99765         10.7160
            1789         59.3381         55.3208        -1.85313         10.8729
            1790         59.1646         55.1395        -1.68959         11.0161
            1791         58.9743         54.9579        -1.50585         11.1440
            1792         58.7656         54.7761        -1.30071         11.2550
            1793         58.5367         54.5941        -1.07295         11.3475
            1794         58.2859         54.4120    -821.321E-03         11.4196
            1795         58.0116         54.2297    -544.566E-03         11.4695
            1796         57.7119         54.0474    -241.443E-03         11.4953
            1797         57.3852         53.8651     89.2683E-03         11.4951
            1798         57.0299         53.6828     448.735E-03         11.4667
            1799         56.6446         53.5005     838.055E-03         11.4080
            1800         56.2279         53.3185         1.25823         11.3168
            1801         55.7788         53.1368         1.71010         11.1907
            1802         55.2966         52.9557         2.19437         11.0273
            1803         54.7809         52.7753         2.71150         10.8238
            1804         54.2319         52.5962         3.26168         10.5775
            1805         53.6503         52.4189         3.84479         10.2854
            1806         53.0375         52.2441         4.46035         9.94423
            1807         52.3957         52.0727         5.10747         9.55031
            1808         51.7283         51.9058         5.78478         9.09961
            1809         51.0396         51.7448         6.49047         8.58755
            1810         50.3355         51.5915         7.22219         8.00890
            1811         49.6236         51.4477         7.97712         7.35763
            1812         48.9134         51.3157         8.75203         6.62675
            1813         48.2172         51.1978         9.54334         5.80813
            1814         47.5502         51.0966         10.3473         4.89233
            1815         46.9319         51.0146         11.1601         3.86843
            1816         46.3865         50.9540         11.9782         2.72393
            1817         45.9446         50.9167         12.7990         1.44446
            1818         45.6445         50.9042         13.6203     13.4434E-03
            1819         56.0288         60.2781         18.0878         9.46760
            1820         56.5218         60.6063         17.3178         9.50890
            1821         57.0312         60.9403         16.5015         9.52440
            1822         57.5487         61.2750         15.6480         9.50792
            1823         58.0658         61.6043         14.7674         9.45545
            1824         58.5743         61.9221         13.8709         9.36507
            1825         59.0662         62.2226         12.9698         9.23690
            1826         59.5348         62.5005         12.0748         9.07297
            1827         59.9748         62.7517         11.1954         8.87680
            1828         60.3822         62.9731         10.3400         8.65306
            1829         60.7546         63.1627         9.51488         8.40709
            1830         61.0907         63.3200         8.72513         8.14452
            1831         61.3905         63.4450         7.97405         7.87096
            1832         61.6550         63.5389         7.26359         7.59170
            1833         61.8856         63.6034         6.59451         7.31159
            1834         62.0844         63.6406         5.96661         7.03491
            1835         62.2538         63.6528         5.37897         6.76532
            1836         62.3962         63.6426         4.83010         6.50588
            1837         62.5142         63.6124         4.31813         6.25907
            1838         62.6103         63.5648         3.84098         6.02684
            1839         62.6869         63.5019         3.39641         5.81067
            1840         62.7462         63.4261         2.98216         5.61164
            1841         62.7904         63.3392         2.59599         5.43049
            1842         62.8213         63.2429         2.23575         5.26766
            1843         62.8407         63.1389         1.89934         5.12336
            1844         62.8501         63.0284         1.58483         4.99761
            1845         62.8510         62.9128         1.29041         4.89029
            1846         62.8445         62.7929         1.01437         4.80115
            1847         62.8318         62.6696     755.190E-03         4.72984
            1848         62.8139         62.5437     511.444E-03         4.67598
            1849         62.7916         62.4158     281.847E-03         4.63910
            1850         62.7657         62.2864     65.2375E-03         4.61872
            1851         62.7369         62.1559    -139.437E-03         4.61433
            1852         62.7056         62.0245    -333.121E-03         4.62539
            1853         62.6726         61.8926    -516.657E-03         4.65139
            1854         62.6381         61.7604    -690.798E-03         4.69179
            1855         62.6026         61.6280    -856.208E-03         4.74604
            1856         62.5664         61.4955        -1.01347         4.81362
            1857         62.5299         61.3629        -1.16311         4.89401
            1858         62.4932         61.2304        -1.30555         4.98668
            1859         62.4567         61.0979        -1.44118         5.09111
            1860         62.4204         60.9654        -1.57031         5.20680
            1861         62.3846         60.8329        -1.69321         5.33323
            1862         62.3494         60.7004        -1.81008         5.46989
            1863         62.3149         60.5679        -1.92108         5.61629
            1864         62.2811         60.4353        -2.02630         5.77191
            1865         62.2481         60.3025        -2.12581         5.93624
            1866         62.2158         60.1696        -2.21962         6.10877
            1867         62.1844         60.0365        -2.30769         6.28898
            1868         62.1537         59.9031        -2.38995         6.47632
            1869         62.1237         59.7695        -2.46628         6.67025
            1870         62.0942         59.6355        -2.53650         6.87022
            1871         62.0651         59.5012        -2.60042         7.07564
            1872         62.0363         59.3666        -2.65778         7.28592
            1873         62.0074         59.2317        -2.70829         7.50045
            1874         61.9781         59.0964        -2.75160         7.71856
            1875         61.9483         58.9607        -2.78733         7.93960
            1876         61.9174         58.8247        -2.81505         8.16285
            1877         61.8850         58.6884        -2.83428         8.38758
            1878         61.8506         58.5518        -2.84450         8.61302
            1879         61.8137         58.4149        -2.84513         8.83837
            1880         61.7737         58.2777        -2.83555         9.06275
            1881         61.7297         58.1404        -2.81508         9.28529
            1882         61.6810         58.0029        -2.78300         9.50504
            1883         61.6267         57.8653        -2.73853         9.72100
            1884         61.5660         57.7277        -2.68083         9.93214
            1885         61.4976         57.5899        -2.60902         10.1373
            1886         61.4206         57.4522        -2.52216         10.3355
            1887         61.3337         57.3146        -2.41926         10.5253
            1888         61.2355         57.1770        -2.29926         10.7056
            1889         61.1248         57.0395        -2.16107         10.8750
            1890         60.9999         56.9022        -2.00354         11.0320
            1891         60.8595         56.7649        -1.82548         11.1753
            1892         60.7017         56.6278        -1.62564         11.3033
            1893         60.5251         56.4908        -1.40277         11.4143
            1894         60.3278         56.3540        -1.15555         11.5068
            1895         60.1081         56.2172    -882.663E-03         11.5789
            1896         59.8643         56.0804    -582.786E-03         11.6289
            1897         59.5945         55.9437    -254.593E-03         11.6547
            1898         59.2971         55.8070     103.220E-03         11.6545
            1899         58.9706         55.6702     491.908E-03         11.6261
            1900         58.6134         55.5334     912.665E-03         11.5674
            1901         58.2242         55.3967         1.36660         11.4761
            1902         57.8019         55.2600         1.85468         11.3497
            1903         57.3458         55.1235         2.37774         11.1857
            1904         56.8556         54.9874         2.93642         10.9815
            1905         56.3311         54.8521         3.53112         10.7340
            1906         55.7731         54.7180         4.16197         10.4401
            1907         55.1828         54.5856         4.82882         10.0964
            1908         54.5623         54.4558         5.53115         9.69904
            1909         53.9145         54.3295         6.26809         9.24373
            1910         53.2437         54.2078         7.03842         8.72566
            1911         52.5553         54.0921         7.84051         8.13936
            1912         51.8564         53.9839         8.67241         7.47857
            1913         51.1562         53.8850         9.53190         6.73613
            1914         50.4662         53.7973         10.4166         5.90378
            1915         49.8012         53.7225         11.3240         4.97209
            1916         49.1797         53.6625         12.2519         3.93026
            1917         48.6255         53.6187         13.1984         2.76609
            1918         48.1680         53.5922         14.1622         1.46574
            1919         47.8443         53.5835         15.1433     13.4333E-03
            1920         55.7357         60.1215         18.0402         9.14751
            1921         56.2135         60.4416         17.2909         9.18137
            1922         56.7074         60.7668         16.5016         9.19369
            1923         57.2105         61.0928         15.6795         9.17915
            1924         57.7157         61.4147         14.8333         9.13421
            1925         58.2159         61.7272         13.9722         9.05696
            1926         58.7041         62.0254         13.1057         8.94712
            1927         59.1744         62.3047         12.2428         8.80599
            1928         59.6217         62.5614         11.3920         8.63616
            1929         60.0421         62.7924         10.5606         8.44123
            1930         60.4326         62.9958         9.75448         8.22548
            1931         60.7918         63.1706         8.97855         7.99356
            1932         61.1189         63.3165         8.23619         7.75023
            1933         61.4141         63.4340         7.52966         7.50008
            1934         61.6782         63.5244         6.86016         7.24746
            1935         61.9126         63.5891         6.22801         6.99626
            1936         62.1190         63.6299         5.63283         6.74994
            1937         62.2993         63.6490         5.07367         6.51147
            1938         62.4558         63.6485         4.54918         6.28332
            1939         62.5904         63.6305         4.05775         6.06751
            1940         62.7052         63.5970         3.59755         5.86563
            1941         62.8024         63.5500         3.16670         5.67893
            1942         62.8837         63.4913         2.76326         5.50830
            1943         62.9511         63.4226         2.38532         5.35437
            1944         63.0061         63.3454         2.03102         5.21753
            1945         63.0504         63.2610         1.69860         5.09797
            1946         63.0852         63.1706         1.38636         4.99572
            1947         63.1119         63.0754         1.09275         4.91068
            1948         63.1316         62.9761     816.290E-03         4.84267
            1949         63.1454         62.8736     555.640E-03         4.79140
            1950         63.1541         62.7686     309.559E-03         4.75652
            1951         63.1586         62.6616     76.9196E-03         4.73765
            1952         63.1595         62.5532    -143.306E-03         4.73437
            1953         63.1577         62.4437    -352.046E-03         4.74621
            1954         63.1536         62.3334    -550.134E-03         4.77273
            1955         63.1479         62.2227    -738.316E-03         4.81343
            1956         63.1408         62.1117    -917.257E-03         4.86783
            1957         63.1329         62.0006        -1.08754         4.93544
            1958         63.1245         61.8897        -1.24969         5.01576
            1959         63.1160         61.7789        -1.40413         5.10830
            1960         63.1076         61.6683        -1.55126         5.21257
            1961         63.0995         61.5581        -1.69139         5.32807
            1962         63.0920         61.4483        -1.82478         5.45431
            1963         63.0852         61.3388        -1.95164         5.59079
            1964         63.0793         61.2298        -2.07213         5.73701
            1965         63.0743         61.1211        -2.18633         5.89247
            1966         63.0704         61.0129        -2.29431         6.05666
            1967         63.0675         60.9052        -2.39607         6.22907
            1968         63.0658         60.7978        -2.49156         6.40917
            1969         63.0651         60.6908        -2.58070         6.59643
            1970         63.0653         60.5843        -2.66335         6.79030
            1971         63.0664         60.4782        -2.73934         6.99021
            1972         63.0683         60.3725        -2.80842         7.19559
            1973         63.0706         60.2672        -2.87033         7.40582
            1974         63.0732         60.1624        -2.92476         7.62030
            1975         63.0758         60.0580        -2.97132         7.83836
            1976         63.0780         59.9540        -3.00962         8.05933
            1977         63.0795         59.8505        -3.03919         8.28250
            1978         63.0796         59.7475        -3.05951         8.50714
            1979         63.0780         59.6450        -3.07002         8.73246
            1980         63.0740         59.5431        -3.07012         8.95765
            1981         63.0669         59.4417        -3.05913         9.18185
            1982         63.0560         59.3409        -3.03633         9.40418
            1983         63.0404         59.2407        -3.00095         9.62368
            1984         63.0193         59.1412        -2.95217         9.83936
            1985         62.9915         59.0423        -2.88909         10.0502
            1986         62.9561         58.9440        -2.81077         10.2551
            1987         62.9119         58.8464        -2.71623         10.4529
            1988         62.8576         58.7495        -2.60439         10.6423
            1989         62.7918         58.6533        -2.47417         10.8222
            1990         62.7131         58.5577        -2.32438         10.9912
            1991         62.6201         58.4627        -2.15383         11.1479
            1992         62.5110         58.3683        -1.96124         11.2909
            1993         62.3843         58.2744        -1.74532         11.4185
            1994         62.2383         58.1810        -1.50472         11.5293
            1995         62.0713         58.0879        -1.23806         11.6216
            1996         61.8813         57.9952    -943.952E-03         11.6935
            1997         61.6667         57.9027    -620.983E-03         11.7433
            1998         61.4258         57.8104    -267.748E-03         11.7692
            1999         61.1567         57.7180     117.148E-03         11.7690
            2000         60.8580         57.6256     535.056E-03         11.7406
            2001         60.5280         57.5331     987.279E-03         11.6820
            2002         60.1656         57.4405         1.47504         11.5907
            2003         59.7694         57.3477         1.99946         11.4643
            2004         59.3389         57.2549         2.56153         11.3002
            2005         58.8735         57.1620         3.16207         11.0956
            2006         58.3731         57.0695         3.80173         10.8475
            2007         57.8383         56.9776         4.48091         10.5525
            2008         57.2703         56.8867         5.19980         10.2070
            2009         56.6707         56.7974         5.95829         9.80719
            2010         56.0426         56.7105         6.75602         9.34846
            2011         55.3896         56.6269         7.59235         8.82584
            2012         54.7170         56.5477         8.46637         8.23371
            2013         54.0314         56.4739         9.37697         7.56565
            2014         53.3417         56.4070         10.3229         6.81440
            2015         52.6588         56.3481         11.3028         5.97167
            2016         51.9971         56.2985         12.3155         5.02809
            2017         51.3745         56.2594         13.3600         3.97307
            2018         50.8139         56.2314         14.4359         2.79475
            2019         50.3440         56.2150         15.5434         1.47985
            2020         50.0009         56.2097         16.6838     13.3616E-03
            2021         55.4746         59.9934         18.0013         8.83429
            2022         55.9398         60.3067         17.2692         8.86170
            2023         56.4208         60.6245         16.5024         8.87112
            2024         56.9118         60.9433         15.7069         8.85797
            2025         57.4067         61.2587         14.8899         8.81910
            2026         57.8994         61.5665         14.0591         8.75264
            2027         58.3840         61.8623         13.2226         8.65809
            2028         58.8550         62.1423         12.3881         8.53622
            2029         59.3076         62.4030         11.5628         8.38890
            2030         59.7381         62.6415         10.7534         8.21891
            2031         60.1435         62.8561         9.96532         8.02966
            2032         60.5218         63.0453         9.20302         7.82500
            2033         60.8720         63.2087         8.46994         7.60892
            2034         61.1936         63.3465         7.76848         7.38541
            2035         61.4869         63.4592         7.10013         7.15828
            2036         61.7528         63.5481         6.46561         6.93109
            2037         61.9924         63.6145         5.86494         6.70703
            2038         62.2072         63.6601         5.29762         6.48891
            2039         62.3989         63.6866         4.76274         6.27914
            2040         62.5692         63.6958         4.25909         6.07976
            2041         62.7199         63.6896         3.78522         5.89242
            2042         62.8527         63.6698         3.33958         5.71844
            2043         62.9695         63.6379         2.92053         5.55885
            2044         63.0719         63.5956         2.52641         5.41442
            2045         63.1614         63.5442         2.15557         5.28566
            2046         63.2395         63.4852         1.80642         5.17292
            2047         63.3076         63.4197         1.47743         5.07637
            2048         63.3669         63.3487         1.16715         4.99605
            2049         63.4186         63.2732     874.197E-03         4.93188
            2050         63.4637         63.1940     597.316E-03         4.88369
            2051         63.5032         63.1119     335.323E-03         4.85125
            2052         63.5380         63.0274     87.1346E-03         4.83426
            2053         63.5688         62.9412    -148.240E-03         4.83238
            2054         63.5964         62.8536    -371.704E-03         4.84523
            2055         63.6214         62.7652    -584.071E-03         4.87240
            2056         63.6444         62.6761    -786.075E-03         4.91349
            2057         63.6659         62.5869    -978.370E-03         4.96804
            2058         63.6864         62.4975        -1.16154         5.03561
            2059         63.7062         62.4084        -1.33608         5.11573
            2060         63.7258         62.3195        -1.50245         5.20796
            2061         63.7455         62.2312        -1.66102         5.31181
            2062         63.7656         62.1434        -1.81210         5.42681
            2063         63.7862         62.0563        -1.95596         5.55249
            2064         63.8077         61.9700        -2.09280         5.68837
            2065         63.8302         61.8846        -2.22276         5.83395
            2066         63.8539         61.8000        -2.34594         5.98874
            2067         63.8787         61.7163        -2.46239         6.15224
            2068         63.9048         61.6336        -2.57210         6.32394
            2069         63.9322         61.5519        -2.67502         6.50332
            2070         63.9609         61.4713        -2.77104         6.68985
            2071         63.9908         61.3917        -2.86002         6.88297
            2072         64.0218         61.3132        -2.94175         7.08212
            2073         64.0538         61.2357        -3.01600         7.28673
            2074         64.0865         61.1595        -3.08246         7.49618
            2075         64.1197         61.0843        -3.14079         7.70985
            2076         64.1531         61.0104        -3.19060         7.92709
            2077         64.1864         60.9377        -3.23145         8.14722
            2078         64.2190         60.8661        -3.26284         8.36952
            2079         64.2505         60.7959        -3.28423         8.59327
            2080         64.2803         60.7269        -3.29502         8.81769
            2081         64.3079         60.6591        -3.29456         9.04195
            2082         64.3324         60.5927        -3.28213         9.26521
            2083         64.3531         60.5276        -3.25698         9.48657
            2084         64.3692         60.4639        -3.21828         9.70509
            2085         64.3796         60.4014        -3.16517         9.91979
            2086         64.3834         60.3403        -3.09669         10.1296
            2087         64.3794         60.2805        -3.01186         10.3335
            2088         64.3665         60.2220        -2.90962         10.5303
            2089         64.3432         60.1647        -2.78887         10.7188
            2090         64.3083         60.1087        -2.64843         10.8978
            2091         64.2602         60.0538        -2.48708         11.0659
            2092         64.1974         60.0000        -2.30354         11.2218
            2093         64.1184         59.9473        -2.09648         11.3640
            2094         64.0214         59.8954        -1.86453         11.4910
            2095         63.9047         59.8443        -1.60628         11.6012
            2096         63.7665         59.7939        -1.32026         11.6929
            2097         63.6051         59.7440        -1.00502         11.7645
            2098         63.4187         59.6945    -659.053E-03         11.8141
            2099         63.2055         59.6453    -280.866E-03         11.8398
            2100         62.9638         59.5961     131.031E-03         11.8396
            2101         62.6919         59.5469     578.095E-03         11.8114
            2102         62.3884         59.4976         1.06175         11.7529
            2103         62.0519         59.4479         1.58334         11.6619
            2104         61.6813         59.3980         2.14416         11.5357
            2105         61.2756         59.3476         2.74536         11.3718
            2106         60.8345         59.2970         3.38799         11.1673
            2107         60.3578         59.2462         4.07292         10.9190
            2108         59.8458         59.1953         4.80088         10.6235
            2109         59.2996         59.1448         5.57240         10.2772
            2110         58.7208         59.0950         6.38780         9.87584
            2111         58.1120         59.0464         7.24722         9.41492
            2112         57.4767         58.9997         8.15060         8.88929
            2113         56.8200         58.9557         9.09774         8.29319
            2114         56.1481         58.9151         10.0883         7.62015
            2115         55.4693         58.8787         11.1219         6.86284
            2116         54.7945         58.8474         12.1984         6.01304
            2117         54.1374         58.8218         13.3174         5.06151
            2118         53.5155         58.8025         14.4794         3.99788
            2119         52.9510         58.7895         15.6851         2.81072
            2120         52.4720         58.7825         16.9359         1.48726
            2121         52.1135         58.7806         18.2345     13.2468E-03
            2122         55.2414         59.8898         17.9698         8.52678
            2123         55.6963         60.1975         17.2520         8.54857
            2124         56.1666         60.5093         16.5040         8.55537
            2125         56.6475         60.8219         15.7310         8.54322
            2126         57.1337         61.1319         14.9388         8.50928
            2127         57.6199         61.4355         14.1340         8.45179
            2128         58.1010         61.7291         13.3235         8.37009
            2129         58.5721         62.0093         12.5139         8.26456
            2130         59.0287         62.2730         11.7115         8.13655
            2131         59.4672         62.5176         10.9221         7.98818
            2132         59.8847         62.7412         10.1508         7.82219
            2133         60.2791         62.9424         9.40161         7.64172
            2134         60.6489         63.1207         8.67795         7.45013
            2135         60.9933         63.2758         7.98226         7.25085
            2136         61.3122         63.4080         7.31620         7.04724
            2137         61.6060         63.5182         6.68073         6.84247
            2138         61.8754         63.6073         6.07622         6.63946
            2139         62.1214         63.6767         5.50252         6.44084
            2140         62.3453         63.7278         4.95908         6.24893
            2141         62.5486         63.7622         4.44502         6.06571
            2142         62.7327         63.7814         3.95924         5.89285
            2143         62.8991         63.7870         3.50049         5.73173
            2144         63.0495         63.7804         3.06739         5.58345
            2145         63.1853         63.7633         2.65852         5.44887
            2146         63.3079         63.7368         2.27245         5.32862
            2147         63.4187         63.7023         1.90776         5.22316
            2148         63.5191         63.6609         1.56307         5.13278
            2149         63.6103         63.6137         1.23705         5.05762
            2150         63.6934         63.5615     928.443E-03         4.99772
            2151         63.7694         63.5054     636.054E-03         4.95301
            2152         63.8394         63.4459     358.776E-03         4.92335
            2153         63.9042         63.3839     95.5838E-03         4.90854
            2154         63.9647         63.3198    -154.473E-03         4.90829
            2155         64.0216         63.2543    -392.261E-03         4.92232
            2156         64.0755         63.1877    -618.568E-03         4.95028
            2157         64.1272         63.1205    -834.106E-03         4.99180
            2158         64.1771         63.0530        -1.03951         5.04650
            2159         64.2259         62.9855        -1.23536         5.11396
            2160         64.2738         62.9182        -1.42214         5.19377
            2161         64.3215         62.8514        -1.60029         5.28549
            2162         64.3692         62.7853        -1.77019         5.38869
            2163         64.4172         62.7201        -1.93213         5.50291
            2164         64.4659         62.6559        -2.08638         5.62770
            2165         64.5154         62.5927        -2.23313         5.76259
            2166         64.5660         62.5308        -2.37251         5.90710
            2167         64.6178         62.4702        -2.50463         6.06075
            2168         64.6710         62.4110        -2.62951         6.22305
            2169         64.7256         62.3533        -2.74714         6.39350
            2170         64.7817         62.2971        -2.85745         6.57159
            2171         64.8392         62.2426        -2.96033         6.75677
            2172         64.8981         62.1896        -3.05561         6.94851
            2173         64.9583         62.1384        -3.14307         7.14625
            2174         65.0196         62.0890        -3.22245         7.34941
            2175         65.0818         62.0413        -3.29343         7.55737
            2176         65.1447         61.9954        -3.35565         7.76953
            2177         65.2079         61.9515        -3.40868         7.98523
            2178         65.2711         61.9094        -3.45206         8.20379
            2179         65.3338         61.8693        -3.48525         8.42451
            2180         65.3954         61.8311        -3.50769         8.64664
            2181         65.4555         61.7948        -3.51873         8.86942
            2182         65.5133         61.7606        -3.51769         9.09203
            2183         65.5682         61.7284        -3.50382         9.31363
            2184         65.6192         61.6982        -3.47630         9.53333
            2185         65.6656         61.6699        -3.43429         9.75019
            2186         65.7062         61.6437        -3.37684         9.96323
            2187         65.7401         61.6194        -3.30298         10.1714
            2188         65.7661         61.5970        -3.21166         10.3737
            2189         65.7829         61.5765        -3.10176         10.5690
            2190         65.7893         61.5579        -2.97213         10.7560
            2191         65.7838         61.5409        -2.82153         10.9335
            2192         65.7649         61.5256        -2.64868         11.1002
            2193         65.7311         61.5119        -2.45224         11.2548
            2194         65.6807         61.4995        -2.23081         11.3959
            2195         65.6121         61.4885        -1.98295         11.5218
            2196         65.5235         61.4785        -1.70716         11.6312
            2197         65.4131         61.4695        -1.40193         11.7222
            2198         65.2791         61.4613        -1.06570         11.7932
            2199         65.1198         61.4536    -696.878E-03         11.8424
            2200         64.9333         61.4463    -293.887E-03         11.8679
            2201         64.7179         61.4392     144.870E-03         11.8676
            2202         64.4721         61.4320     620.963E-03         11.8395
            2203         64.1942         61.4246         1.13594         11.7813
            2204         63.8829         61.4168         1.69130         11.6907
            2205         63.5371         61.4085         2.28849         11.5650
            2206         63.1558         61.3996         2.92887         11.4016
            2207         62.7384         61.3900         3.61369         11.1975
            2208         62.2847         61.3797         4.34411         10.9496
            2209         61.7951         61.3689         5.12116         10.6543
            2210         61.2703         61.3576         5.94571         10.3079
            2211         60.7119         61.3460         6.81855         9.90615
            2212         60.1222         61.3346         7.74029         9.44433
            2213         59.5046         61.3235         8.71146         8.91725
            2214         58.8638         61.3134         9.73252         8.31909
            2215         58.2058         61.3046         10.8039         7.64336
            2216         57.5387         61.2975         11.9261         6.88276
            2217         56.8728         61.2925         13.0997         6.02916
            2218         56.2216         61.2898         14.3256         5.07349
            2219         55.6021         61.2892         15.6052         4.00570
            2220         55.0360         61.2903         16.9403         2.81473
            2221         54.5509         61.2922         18.3335         1.48838
            2222         54.1808         61.2934         19.7887     13.0878E-03
            2223         55.0330         59.8076         17.9447         8.22395
            2224         55.4795         60.1107         17.2388         8.24084
            2225         55.9411         60.4174         16.5066         8.24531
            2226         56.4135         60.7249         15.7524         8.23387
            2227         56.8924         61.0303         14.9813         8.20400
            2228         57.3730         61.3304         14.1989         8.15402
            2229         57.8510         61.6220         13.4109         8.08317
            2230         58.3217         61.9022         12.6230         7.99158
            2231         58.7814         62.1682         11.8410         7.88019
            2232         59.2264         62.4176         11.0697         7.75062
            2233         59.6540         62.6488         10.3138         7.60503
            2234         60.0619         62.8602         9.57710         7.44602
            2235         60.4485         63.0511         8.86274         7.27639
            2236         60.8127         63.2211         8.17317         7.09909
            2237         61.1541         63.3704         7.51014         6.91703
            2238         61.4726         63.4993         6.87481         6.73304
            2239         61.7687         63.6087         6.26777         6.54978
            2240         62.0429         63.6996         5.68915         6.36967
            2241         62.2964         63.7731         5.13868         6.19489
            2242         62.5300         63.8306         4.61579         6.02737
            2243         62.7452         63.8733         4.11967         5.86874
            2244         62.9431         63.9026         3.64931         5.72039
            2245         63.1251         63.9200         3.20361         5.58346
            2246         63.2926         63.9267         2.78135         5.45889
            2247         63.4469         63.9240         2.38131         5.34738
            2248         63.5893         63.9131         2.00224         5.24948
            2249         63.7209         63.8951         1.64290         5.16558
            2250         63.8430         63.8710         1.30209         5.09590
            2251         63.9567         63.8417     978.669E-03         5.04058
            2252         64.0630         63.8082     671.529E-03         4.99964
            2253         64.1629         63.7711     379.638E-03         4.97303
            2254         64.2573         63.7313     102.031E-03         4.96061
            2255         64.3470         63.6892    -162.188E-03         4.96219
            2256         64.4329         63.6456    -413.847E-03         4.97753
            2257         64.5155         63.6008    -653.698E-03         5.00636
            2258         64.5956         63.5553    -882.427E-03         5.04835
            2259         64.6738         63.5095        -1.10065         5.10317
            2260         64.7506         63.4638        -1.30892         5.17046
            2261         64.8265         63.4184        -1.50771         5.24983
            2262         64.9019         63.3737        -1.69746         5.34088
            2263         64.9773         63.3299        -1.87851         5.44320
            2264         65.0531         63.2871        -2.05117         5.55637
            2265         65.1294         63.2456        -2.21568         5.67994
            2266         65.2066         63.2056        -2.37223         5.81348
            2267         65.2850         63.1672        -2.52095         5.95652
            2268         65.3646         63.1304        -2.66192         6.10860
            2269         65.4456         63.0955        -2.79515         6.26923
            2270         65.5282         63.0626        -2.92064         6.43793
            2271         65.6123         63.0317        -3.03828         6.61417
            2272         65.6980         63.0029        -3.14796         6.79745
            2273         65.7852         62.9764        -3.24949         6.98723
            2274         65.8738         62.9521        -3.34264         7.18294
            2275         65.9636         62.9302        -3.42711         7.38402
            2276         66.0545         62.9107        -3.50258         7.58986
            2277         66.1461         62.8937        -3.56865         7.79984
            2278         66.2381         62.8791        -3.62487         8.01333
            2279         66.3302         62.8671        -3.67074         8.22965
            2280         66.4219         62.8577        -3.70572         8.44809
            2281         66.5126         62.8509        -3.72918         8.66792
            2282         66.6018         62.8468        -3.74046         8.88838
            2283         66.6887         62.8453        -3.73883         9.10867
            2284         66.7726         62.8464        -3.72351         9.32794
            2285         66.8526         62.8502        -3.69364         9.54531
            2286         66.9279         62.8566        -3.64831         9.75987
            2287         66.9975         62.8656        -3.58656         9.97064
            2288         67.0602         62.8772        -3.50735         10.1766
            2289         67.1148         62.8912        -3.40958         10.3767
            2290         67.1601         62.9077        -3.29209         10.5698
            2291         67.1948         62.9265        -3.15366         10.7548
            2292         67.2174         62.9476        -2.99299         10.9304
            2293         67.2264         62.9708        -2.80875         11.0953
            2294         67.2203         62.9959        -2.59953         11.2482
            2295         67.1973         63.0228        -2.36387         11.3877
            2296         67.1559         63.0514        -2.10024         11.5123
            2297         67.0942         63.0814        -1.80710         11.6205
            2298         67.0104         63.1126        -1.48284         11.7105
            2299         66.9028         63.1448        -1.12580         11.7808
            2300         66.7695         63.1778    -734.334E-03         11.8294
            2301         66.6088         63.2112    -306.742E-03         11.8546
            2302         66.4189         63.2449     158.676E-03         11.8542
            2303         66.1983         63.2786     663.611E-03         11.8263
            2304         65.9452         63.3120         1.20975         11.7684
            2305         65.6584         63.3450         1.79874         11.6783
            2306         65.3366         63.3772         2.43220         11.5533
            2307         64.9789         63.4085         3.11169         11.3907
            2308         64.5846         63.4388         3.83872         11.1876
            2309         64.1535         63.4679         4.61470         10.9405
            2310         63.6857         63.4958         5.44097         10.6462
            2311         63.1819         63.5225         6.31880         10.3005
            2312         62.6435         63.5480         7.24937         9.89937
            2313         62.0727         63.5724         8.23381         9.43794
            2314         61.4727         63.5957         9.27320         8.91100
            2315         60.8478         63.6182         10.3686         8.31272
            2316         60.2040         63.6399         11.5212         7.63660
            2317         59.5490         63.6608         12.7323         6.87545
            2318         58.8929         63.6809         14.0033         6.02125
            2319         58.2488         63.6997         15.3360         5.06517
            2320         57.6333         63.7169         16.7328         3.99745
            2321         57.0680         63.7313         18.1965         2.80747
            2322         56.5794         63.7416         19.7306         1.48356
            2323         56.2012         63.7457         21.3400     12.8558E-03
            2324         54.8465         59.7439         17.9253         7.92493
            2325         55.2863         60.0434         17.2291         7.93756
            2326         55.7407         60.3459         16.5100         7.93995
            2327         56.2062         60.6492         15.7717         7.92904
            2328         56.6790         60.9507         15.0185         7.90254
            2329         57.1550         61.2478         14.2552         7.85889
            2330         57.6301         61.5377         13.4867         7.79728
            2331         58.1005         61.8178         12.7180         7.71764
            2332         58.5626         62.0856         11.9539         7.62061
            2333         59.0130         62.3391         11.1989         7.50740
            2334         59.4491         62.5766         10.4571         7.37975
            2335         59.8685         62.7966         9.73201         7.23976
            2336         60.2695         62.9984         9.02661         7.08978
            2337         60.6509         63.1814         8.34326         6.93233
            2338         61.0121         63.3456         7.68374         6.76995
            2339         61.3526         63.4912         7.04933         6.60512
            2340         61.6726         63.6188         6.44077         6.44025
            2341         61.9724         63.7290         5.85841         6.27756
            2342         62.2528         63.8229         5.30222         6.11908
            2343         62.5144         63.9016         4.77186         5.96662
            2344         62.7584         63.9660         4.26676         5.82178
            2345         62.9857         64.0176         3.78617         5.68594
            2346         63.1975         64.0574         3.32918         5.56025
            2347         63.3951         64.0867         2.89480         5.44567
            2348         63.5795         64.1067         2.48197         5.34298
            2349         63.7521         64.1184         2.08962         5.25277
            2350         63.9138         64.1229         1.71666         5.17551
            2351         64.0658         64.1212         1.36201         5.11151
            2352         64.2092         64.1142         1.02462         5.06097
            2353         64.3450         64.1027     703.508E-03         5.02400
            2354         64.4741         64.0876     397.700E-03         5.00061
            2355         64.5975         64.0696     106.305E-03         4.99074
            2356         64.7160         64.0493    -171.519E-03         4.99427
            2357         64.8303         64.0273    -436.551E-03         5.01101
            2358         64.9412         64.0041    -689.505E-03         5.04075
            2359         65.0493         63.9802    -931.034E-03         5.08323
            2360         65.1553         63.9560        -1.16173         5.13814
            2361         65.2598         63.9319        -1.38211         5.20516
            2362         65.3633         63.9084        -1.59265         5.28396
            2363         65.4662         63.8856        -1.79374         5.37417
            2364         65.5690         63.8639        -1.98574         5.47540
            2365         65.6720         63.8435        -2.16893         5.58726
            2366         65.7757         63.8246        -2.34354         5.70933
            2367         65.8801         63.8075        -2.50974         5.84118
            2368         65.9857         63.7923        -2.66766         5.98239
            2369         66.0927         63.7792        -2.81736         6.13248
            2370         66.2010         63.7684        -2.95885         6.29100
            2371         66.3110         63.7600        -3.09209         6.45746
            2372         66.4225         63.7541        -3.21698         6.63138
            2373         66.5357         63.7508        -3.33339         6.81223
            2374         66.6504         63.7502        -3.44109         6.99948
            2375         66.7666         63.7525        -3.53986         7.19260
            2376         66.8842         63.7576        -3.62937         7.39101
            2377         67.0028         63.7658        -3.70927         7.59412
            2378         67.1222         63.7770        -3.77914         7.80132
            2379         67.2421         63.7913        -3.83850         8.01197
            2380         67.3621         63.8088        -3.88684         8.22540
            2381         67.4817         63.8295        -3.92357         8.44094
            2382         67.6004         63.8534        -3.94804         8.65783
            2383         67.7175         63.8805        -3.95954         8.87534
            2384         67.8323         63.9110        -3.95732         9.09267
            2385         67.9441         63.9446        -3.94055         9.30899
            2386         68.0519         63.9816        -3.90834         9.52342
            2387         68.1550         64.0217        -3.85974         9.73507
            2388         68.2521         64.0650        -3.79373         9.94297
            2389         68.3423         64.1114        -3.70922         10.1461
            2390         68.4243         64.1609        -3.60508         10.3435
            2391         68.4969         64.2133        -3.48008         10.5340
            2392         68.5586         64.2685        -3.33295         10.7164
            2393         68.6081         64.3265        -3.16234         10.8896
            2394         68.6438         64.3870        -2.96686         11.0523
            2395         68.6641         64.4499        -2.74502         11.2031
            2396         68.6674         64.5149        -2.49529         11.3407
            2397         68.6520         64.5819        -2.21611         11.4636
            2398         68.6161         64.6507        -1.90582         11.5703
            2399         68.5579         64.7210        -1.56275         11.6591
            2400         68.4757         64.7924        -1.18516         11.7284
            2401         68.3675         64.8648    -771.290E-03         11.7763
            2402         68.2316         64.9378    -319.351E-03         11.8011
            2403         68.0664         65.0112     172.473E-03         11.8006
            2404         67.8700         65.0845     706.000E-03         11.7727
            2405         67.6409         65.1576         1.28306         11.7153
            2406         67.3779         65.2300         1.90546         11.6258
            2407         67.0794         65.3016         2.57500         11.5018
            2408         66.7447         65.3720         3.29346         11.3404
            2409         66.3729         65.4409         4.06258         11.1385
            2410         65.9637         65.5082         4.88406         10.8930
            2411         65.5172         65.5737         5.75955         10.6002
            2412         65.0339         65.6371         6.69069         10.2562
            2413         64.5151         65.6983         7.67908         9.85676
            2414         63.9629         65.7572         8.72632         9.39707
            2415         63.3803         65.8136         9.83405         8.87187
            2416         62.7714         65.8674         11.0039         8.27539
            2417         62.1419         65.9183         12.2378         7.60118
            2418         61.4995         65.9659         13.5377         6.84216
            2419         60.8540         66.0098         14.9058         5.99049
            2420         60.2181         66.0492         16.3447         5.03759
            2421         59.6084         66.0831         17.8578         3.97404
            2422         59.0456         66.1101         19.4486         2.78963
            2423         58.5563         66.1282         21.1216         1.47323
            2424         58.1731         66.1350         22.8826     12.6316E-03
            2425         54.6796         59.6964         17.9108         7.62896
            2426         55.1139         59.9929         17.2225         7.63789
            2427         55.5626         60.2920         16.5142         7.63845
            2428         56.0226         60.5918         15.7893         7.62793
            2429         56.4903         60.8902         15.0513         7.60426
            2430         56.9624         61.1848         14.3044         7.56599
            2431         57.4353         61.4733         13.5527         7.51228
            2432         57.9054         61.7533         12.8006         7.44293
            2433         58.3694         62.0227         12.0524         7.35834
            2434         58.8244         62.2796         11.3119         7.25942
            2435         59.2676         62.5225         10.5829         7.14754
            2436         59.6969         62.7500         9.86860         7.02441
            2437         60.1105         62.9612         9.17169         6.89200
            2438         60.5070         63.1556         8.49447         6.75245
            2439         60.8856         63.3330         7.83873         6.60796
            2440         61.2457         63.4934         7.20576         6.46072
            2441         61.5872         63.6372         6.59646         6.31289
            2442         61.9102         63.7650         6.01131         6.16646
            2443         62.2151         63.8775         5.45047         6.02334
            2444         62.5025         63.9755         4.91380         5.88522
            2445         62.7731         64.0602         4.40093         5.75362
            2446         63.0278         64.1324         3.91131         5.62989
            2447         63.2676         64.1933         3.44423         5.51516
            2448         63.4936         64.2439         2.99889         5.41042
            2449         63.7066         64.2854         2.57440         5.31647
            2450         63.9079         64.3186         2.16983         5.23396
            2451         64.0984         64.3448         1.78423         5.16339
            2452         64.2792         64.3646         1.41665         5.10515
            2453         64.4514         64.3792         1.06616         5.05950
            2454         64.6157         64.3893     731.843E-03         5.02660
            2455         64.7733         64.3956     412.831E-03         5.00654
            2456         64.9249         64.3990     108.295E-03         4.99931
            2457         65.0714         64.4000    -182.547E-03         5.00485
            2458         65.2136         64.3992    -460.422E-03         5.02304
            2459         65.3522         64.3973    -726.002E-03         5.05371
            2460         65.4879         64.3947    -979.900E-03         5.09664
            2461         65.6213         64.3919        -1.22268         5.15158
            2462         65.7531         64.3893        -1.45483         5.21826
            2463         65.8836         64.3873        -1.67679         5.29636
            2464         66.0135         64.3862        -1.88896         5.38555
            2465         66.1432         64.3864        -2.09165         5.48548
            2466         66.2731         64.3881        -2.28515         5.59578
            2467         66.4035         64.3917        -2.46965         5.71606
            2468         66.5348         64.3972        -2.64533         5.84591
            2469         66.6671         64.4050        -2.81228         5.98492
            2470         66.8007         64.4153        -2.97056         6.13265
            2471         66.9358         64.4283        -3.12016         6.28865
            2472         67.0725         64.4440        -3.26103         6.45244
            2473         67.2108         64.4627        -3.39306         6.62355
            2474         67.3507         64.4844        -3.51608         6.80148
            2475         67.4923         64.5094        -3.62988         6.98571
            2476         67.6353         64.5377        -3.73417         7.17569
            2477         67.7797         64.5695        -3.82864         7.37089
            2478         67.9252         64.6048        -3.91291         7.57070
            2479         68.0715         64.6436        -3.98652         7.77454
            2480         68.2183         64.6862        -4.04898         7.98177
            2481         68.3652         64.7325        -4.09975         8.19173
            2482         68.5117         64.7825        -4.13819         8.40376
            2483         68.6572         64.8364        -4.16365         8.61712
            2484         68.8011         64.8941        -4.17537         8.83108
            2485         68.9427         64.9556        -4.17256         9.04486
            2486         69.0812         65.0209        -4.15436         9.25763
            2487         69.2157         65.0901        -4.11984         9.46855
            2488         69.3453         65.1630        -4.06800         9.67672
            2489         69.4689         65.2397        -3.99778         9.88121
            2490         69.5854         65.3200        -3.90806         10.0810
            2491         69.6936         65.4038        -3.79763         10.2751
            2492         69.7922         65.4911        -3.66524         10.4625
            2493         69.8798         65.5817        -3.50954         10.6419
            2494         69.9550         65.6754        -3.32914         10.8123
            2495         70.0162         65.7721        -3.12258         10.9723
            2496         70.0619         65.8716        -2.88831         11.1206
            2497         70.0904         65.9736        -2.62475         11.2560
            2498         70.0999         66.0779        -2.33024         11.3768
            2499         70.0888         66.1843        -2.00306         11.4818
            2500         70.0551         66.2924        -1.64145         11.5691
            2501         69.9972         66.4019        -1.24359         11.6372
            2502         69.9132         66.5125    -807.616E-03         11.6843
            2503         69.8013         66.6239    -331.638E-03         11.7085
            2504         69.6597         66.7357     186.282E-03         11.7078
            2505         69.4868         66.8475     748.090E-03         11.6801
            2506         69.2810         66.9590         1.35576         11.6232
            2507         69.0408         67.0697         2.01128         11.5346
            2508         68.7650         67.1794         2.71663         11.4117
            2509         68.4525         67.2876         3.47381         11.2517
            2510         68.1026         67.3940         4.28479         11.0516
            2511         67.7147         67.4982         5.15156         10.8081
            2512         67.2889         67.6000         6.07609         10.5177
            2513         66.8257         67.6988         7.06039         10.1763
            2514         66.3261         67.7945         8.10645         9.77963
            2515         65.7922         67.8866         9.21636         9.32302
            2516         65.2268         67.9747         10.3923         8.80120
            2517         64.6339         68.0584         11.6364         8.20843
            2518         64.0190         68.1372         12.9512         7.53840
            2519         63.3896         68.2102         14.3393         6.78415
            2520         62.7553         68.2768         15.8038         5.93806
            2521         62.1287         68.3356         17.3480         4.99180
            2522         61.5260         68.3854         18.9759         3.93631
            2523         60.9678         68.4242         20.6919         2.76180
            2524         60.4801         68.4497         22.5014         1.45767
            2525         60.0948         68.4591         24.4108     12.3370E-03
            2526         54.5300         59.6629         17.9005         7.33541
            2527         54.9602         59.9570         17.2184         7.34112
            2528         55.4044         60.2534         16.5192         7.34009
            2529         55.8599         60.5505         15.8054         7.32987
            2530         56.3236         60.8463         15.0803         7.30860
            2531         56.7926         61.1389         14.3473         7.27492
            2532         57.2636         61.4262         13.6102         7.22800
            2533         57.7335         61.7062         12.8727         7.16754
            2534         58.1992         61.9770         12.1384         7.09377
            2535         58.6581         62.2369         11.4108         7.00734
            2536         59.1075         62.4845         10.6934         6.90934
            2537         59.5454         62.7184         9.98888         6.80115
            2538         59.9700         62.9379         9.29991         6.68444
            2539         60.3798         63.1424         8.62862         6.56100
            2540         60.7739         63.3314         7.97673         6.43273
            2541         61.1515         63.5051         7.34557         6.30157
            2542         61.5123         63.6636         6.73610         6.16943
            2543         61.8563         63.8072         6.14891         6.03812
            2544         62.1836         63.9367         5.58430         5.90938
            2545         62.4946         64.0526         5.04230         5.78479
            2546         62.7899         64.1558         4.52270         5.66578
            2547         63.0701         64.2473         4.02513         5.55365
            2548         63.3361         64.3279         3.54904         5.44951
            2549         63.5887         64.3986         3.09380         5.35435
            2550         63.8288         64.4604         2.65867         5.26896
            2551         64.0574         64.5142         2.24288         5.19403
            2552         64.2755         64.5610         1.84559         5.13010
            2553         64.4839         64.6017         1.46597         5.07760
            2554         64.6836         64.6371         1.10321         5.03684
            2555         64.8755         64.6679     756.469E-03         5.00805
            2556         65.0606         64.6951     424.969E-03         4.99134
            2557         65.2397         64.7193     107.951E-03         4.98678
            2558         65.4135         64.7411    -195.303E-03         4.99435
            2559         65.5829         64.7613    -485.468E-03         5.01399
            2560         65.7486         64.7802    -763.166E-03         5.04556
            2561         65.9112         64.7986        -1.02897         5.08889
            2562         66.0714         64.8168        -1.28341         5.14379
            2563         66.2298         64.8353        -1.52695         5.21000
            2564         66.3869         64.8545        -1.76000         5.28726
            2565         66.5432         64.8749        -1.98292         5.37526
            2566         66.6993         64.8967        -2.19602         5.47369
            2567         66.8555         64.9202        -2.39956         5.58220
            2568         67.0121         64.9458        -2.59372         5.70042
            2569         67.1695         64.9737        -2.77865         5.82797
            2570         67.3279         65.0042        -2.95443         5.96445
            2571         67.4876         65.0375        -3.12111         6.10945
            2572         67.6488         65.0738        -3.27867         6.26254
            2573         67.8115         65.1132        -3.42702         6.42324
            2574         67.9758         65.1561        -3.56604         6.59112
            2575         68.1418         65.2025        -3.69556         6.76566
            2576         68.3093         65.2525        -3.81533         6.94638
            2577         68.4783         65.3063        -3.92506         7.13274
            2578         68.6487         65.3641        -4.02440         7.32420
            2579         68.8202         65.4259        -4.11295         7.52020
            2580         68.9925         65.4918        -4.19023         7.72013
            2581         69.1652         65.5619        -4.25574         7.92339
            2582         69.3381         65.6363        -4.30888         8.12934
            2583         69.5104         65.7150        -4.34901         8.33729
            2584         69.6817         65.7980        -4.37543         8.54656
            2585         69.8514         65.8854        -4.38736         8.75641
            2586         70.0187         65.9772        -4.38397         8.96608
            2587         70.1828         66.0733        -4.36436         9.17476
            2588         70.3428         66.1738        -4.32756         9.38163
            2589         70.4978         66.2786        -4.27254         9.58579
            2590         70.6467         66.3876        -4.19819         9.78634
            2591         70.7884         66.5007        -4.10334         9.98231
            2592         70.9216         66.6179        -3.98675         10.1727
            2593         71.0451         66.7390        -3.84709         10.3564
            2594         71.1575         66.8638        -3.68298         10.5324
            2595         71.2573         66.9922        -3.49297         10.6995
            2596         71.3429         67.1240        -3.27553         10.8564
            2597         71.4129         67.2589        -3.02906         11.0019
            2598         71.4654         67.3967        -2.75191         11.1347
            2599         71.4989         67.5372        -2.44234         11.2532
            2600         71.5115         67.6799        -2.09856         11.3561
            2601         71.5014         67.8247        -1.71872         11.4418
            2602         71.4669         67.9711        -1.30091         11.5085
            2603         71.4061         68.1187    -843.185E-03         11.5546
            2604         71.3172         68.2673    -343.525E-03         11.5782
            2605         71.1985         68.4163     200.123E-03         11.5773
            2606         71.0483         68.5653     789.841E-03         11.5497
            2607         70.8649         68.7140         1.42775         11.4933
            2608         70.6469         68.8618         2.11601         11.4057
            2609         70.3929         69.0083         2.85681         11.2842
            2610         70.1020         69.1531         3.65233         11.1260
            2611         69.7732         69.2957         4.50482         10.9282
            2612         69.4060         69.4355         5.41654         10.6873
            2613         69.0003         69.5722         6.38978         10.3999
            2614         68.5566         69.7052         7.42688         10.0620
            2615         68.0759         69.8339         8.53027         9.66932
            2616         67.5600         69.9579         9.70244         9.21714
            2617         67.0115         70.0764         10.9460         8.70030
            2618         66.4345         70.1887         12.2638         8.11317
            2619         65.8344         70.2941         13.6589         7.44954
            2620         65.2183         70.3913         15.1344         6.70264
            2621         64.5959         70.4793         16.6942         5.86506
            2622         63.9796         70.5566         18.3422         4.92878
            2623         63.3852         70.6213         20.0831         3.88508
            2624         62.8332         70.6713         21.9221         2.72460
            2625         62.3491         70.7038         23.8652         1.43723
            2626         61.9644         70.7154         25.9196     12.0260E-03
            2627         54.3960         59.6415         17.8938         7.04370
            2628         54.8231         59.9338         17.2167         7.04664
            2629         55.2639         60.2281         16.5247         7.04421
            2630         55.7158         60.5229         15.8203         7.03424
            2631         56.1765         60.8167         15.1061         7.01502
            2632         56.6430         61.1077         14.3850         6.98530
            2633         57.1125         61.3941         13.6604         6.94424
            2634         57.5824         61.6742         12.9354         6.89150
            2635         58.0497         61.9463         12.2134         6.82715
            2636         58.5120         62.2089         11.4973         6.75166
            2637         58.9669         62.4606         10.7902         6.66589
            2638         59.4123         62.7003         10.0946         6.57096
            2639         59.8465         62.9271         9.41303         6.46824
            2640         60.2681         63.1405         8.74736         6.35927
            2641         60.6760         63.3400         8.09929         6.24568
            2642         61.0693         63.5256         7.47015         6.12917
            2643         61.4475         63.6972         6.86091         6.01143
            2644         61.8106         63.8553         6.27227         5.89409
            2645         62.1583         64.0002         5.70462         5.77873
            2646         62.4910         64.1326         5.15811         5.66681
            2647         62.8091         64.2530         4.63268         5.55969
            2648         63.1130         64.3624         4.12810         5.45859
            2649         63.4034         64.4614         3.64397         5.36458
            2650         63.6810         64.5510         3.17980         5.27862
            2651         63.9467         64.6320         2.73500         5.20152
            2652         64.2012         64.7054         2.30890         5.13397
            2653         64.4454         64.7719         1.90082         5.07654
            2654         64.6801         64.8324         1.51002         5.02968
            2655         64.9063         64.8878         1.13579         4.99375
            2656         65.1248         64.9388     777.389E-03         4.96901
            2657         65.3364         64.9861     434.113E-03         4.95563
            2658         65.5420         65.0305     105.278E-03         4.95370
            2659         65.7423         65.0727    -209.773E-03         4.96327
            2660         65.9380         65.1131    -511.657E-03         4.98430
            2661         66.1300         65.1525    -800.948E-03         5.01672
            2662         66.3188         65.1913        -1.07818         5.06038
            2663         66.5051         65.2301        -1.34383         5.11513
            2664         66.6895         65.2694        -1.59835         5.18076
            2665         66.8725         65.3095        -1.84210         5.25703
            2666         67.0547         65.3508        -2.07544         5.34367
            2667         67.2365         65.3938        -2.29863         5.44038
            2668         67.4183         65.4388        -2.51191         5.54686
            2669         67.6005         65.4861        -2.71546         5.66276
            2670         67.7834         65.5359        -2.90940         5.78772
            2671         67.9673         65.5887        -3.09379         5.92137
            2672         68.1524         65.6445        -3.26867         6.06330
            2673         68.3389         65.7037        -3.43398         6.21310
            2674         68.5269         65.7665        -3.58964         6.37034
            2675         68.7165         65.8330        -3.73550         6.53456
            2676         68.9077         65.9034        -3.87137         6.70529
            2677         69.1004         65.9779        -3.99698         6.88205
            2678         69.2946         66.0567        -4.11202         7.06432
            2679         69.4901         66.1399        -4.21613         7.25157
            2680         69.6866         66.2275        -4.30887         7.44325
            2681         69.8840         66.3198        -4.38975         7.63878
            2682         70.0817         66.4168        -4.45823         7.83756
            2683         70.2794         66.5185        -4.51370         8.03896
            2684         70.4767         66.6250        -4.55548         8.24233
            2685         70.6728         66.7364        -4.58284         8.44698
            2686         70.8672         66.8526        -4.59497         8.65219
            2687         71.0591         66.9738        -4.59101         8.85723
            2688         71.2477         67.0998        -4.57002         9.06130
            2689         71.4322         67.2307        -4.53099         9.26360
            2690         71.6115         67.3663        -4.47286         9.46325
            2691         71.7846         67.5067        -4.39446         9.65937
            2692         71.9503         67.6516        -4.29460         9.85101
            2693         72.1075         67.8011        -4.17196         10.0372
            2694         72.2548         67.9549        -4.02519         10.2169
            2695         72.3908         68.1129        -3.85285         10.3890
            2696         72.5141         68.2748        -3.65343         10.5524
            2697         72.6231         68.4406        -3.42534         10.7059
            2698         72.7163         68.6098        -3.16692         10.8482
            2699         72.7919         68.7822        -2.87644         10.9780
            2700         72.8483         68.9576        -2.55212         11.0939
            2701         72.8837         69.1356        -2.19206         11.1946
            2702         72.8963         69.3157        -1.79435         11.2783
            2703         72.8842         69.4978        -1.35697         11.3435
            2704         72.8457         69.6812    -877.875E-03         11.3884
            2705         72.7790         69.8657    -354.940E-03         11.4113
            2706         72.6823         70.0507     214.012E-03         11.4101
            2707         72.5538         70.2357     831.202E-03         11.3827
            2708         72.3920         70.4203         1.49891         11.3270
            2709         72.1954         70.6039         2.21946         11.2405
            2710         71.9626         70.7860         2.99522         11.1206
            2711         71.6925         70.9661         3.82863         10.9646
            2712         71.3841         71.1435         4.72216         10.7695
            2713         71.0369         71.3176         5.67834         10.5319
            2714         70.6508         71.4879         6.69977         10.2483
            2715         70.2262         71.6537         7.78916         9.91480
            2716         69.7638         71.8142         8.94928         9.52717
            2717         69.2654         71.9687         10.1831         9.08078
            2718         68.7338         72.1162         11.4937         8.57053
            2719         68.1727         72.2559         12.8843         7.99091
            2720         67.5873         72.3865         14.3586         7.33586
            2721         66.9850         72.5068         15.9203         6.59880
            2722          66.375         72.6151         17.5738         5.77258
            2723         65.7697         72.7098         19.3238         4.84947
            2724         65.1848         72.7887         21.1756         3.82110
            2725         64.6404         72.8491         23.1349         2.67856
            2726         64.1618         72.8881         25.2085         1.41223
            2727         63.7800         72.9021         27.4040     11.7078E-03
            2728         54.2759         59.6305         17.8903         6.75335
            2729         54.7009         59.9215         17.2170         6.75390
            2730         55.1391         60.2141         16.5309         6.75029
            2731         55.5884         60.5073         15.8341         6.74053
            2732         56.0466         60.7995         15.1290         6.72309
            2733         56.5113         61.0893         14.4181         6.69678
            2734         56.9799         61.3751         13.7043         6.66081
            2735         57.4499         61.6554         12.9902         6.61478
            2736         57.9187         61.9288         12.2788         6.55865
            2737         58.3841         62.1938         11.5729         6.49277
            2738         58.8438         62.4492         10.8750         6.41778
            2739         59.2959         62.6940         10.1875         6.33460
            2740         59.7387         62.9274         9.51264         6.24436
            2741         60.1708         63.1487         8.85222         6.14837
            2742         60.5909         63.3576         8.20786         6.04803
            2743         60.9983         63.5539         7.58082         5.94482
            2744         61.3923         63.7375         6.97211         5.84024
            2745         61.7726         63.9087         6.38247         5.73574
            2746         62.1391         64.0678         5.81236         5.63277
            2747         62.4917         64.2152         5.26203         5.53267
            2748         62.8308         64.3516         4.73154         5.43669
            2749         63.1567         64.4775         4.22077         5.34597
            2750         63.4698         64.5938         3.72947         5.26156
            2751         63.7709         64.7011         3.25724         5.18438
            2752         64.0606         64.8003         2.80363         5.11522
            2753         64.3396         64.8921         2.36811         5.05478
            2754         64.6086         64.9774         1.95007         5.00363
            2755         64.8684         65.0569         1.54891         4.96224
            2756         65.1199         65.1315         1.16399         4.93101
            2757         65.3638         65.2018     794.673E-03         4.91021
            2758         65.6009         65.2686     440.324E-03         4.90006
            2759         65.8319         65.3325     100.332E-03         4.90069
            2760         66.0578         65.3943    -225.896E-03         4.91217
            2761         66.2790         65.4545    -538.919E-03         4.93452
            2762         66.4964         65.5138    -839.264E-03         4.96769
            2763         66.7106         65.5726        -1.12742         5.01158
            2764         66.9223         65.6315        -1.40382         5.06607
            2765         67.1319         65.6910        -1.66888         5.13097
            2766         67.3402         65.7514        -1.92294         5.20609
            2767         67.5474         65.8134        -2.16632         5.29118
            2768         67.7542         65.8771        -2.39926         5.38598
            2769         67.9610         65.9431        -2.62197         5.49020
            2770         68.1680         66.0116        -2.83461         5.60353
            2771         68.3757         66.0829        -3.03729         5.72562
            2772         68.5843         66.1574        -3.23004         5.85612
            2773         68.7941         66.2353        -3.41287         5.99466
            2774         69.0051         66.3169        -3.58573         6.14084
            2775         69.2177         66.4024        -3.74851         6.29423
            2776         69.4317         66.4920        -3.90103         6.45442
            2777         69.6473         66.5859        -4.04308         6.62094
            2778         69.8644         66.6843        -4.17439         6.79331
            2779         70.0829         66.7874        -4.29461         6.97105
            2780         70.3026         66.8953        -4.40337         7.15364
            2781         70.5234         67.0081        -4.50019         7.34054
            2782         70.7448         67.1260        -4.58459         7.53120
            2783         70.9666         67.2491        -4.65597         7.72501
            2784         71.1883         67.3773        -4.71371         7.92138
            2785         71.4094         67.5109        -4.75710         8.11967
            2786         71.6293         67.6498        -4.78537         8.31921
            2787         71.8474         67.7941        -4.79770         8.51930
            2788         72.0629         67.9437        -4.79318         8.71921
            2789         72.2750         68.0986        -4.77084         8.91819
            2790         72.4828         68.2589        -4.72964         9.11543
            2791         72.6854         68.4244        -4.66847         9.31010
            2792         72.8816         68.5951        -4.58612         9.50132
            2793         73.0704         68.7708        -4.48136         9.68819
            2794         73.2504         68.9515        -4.35282         9.86973
            2795         73.4205         69.1369        -4.19911         10.0449
            2796         73.5791         69.3269        -4.01874         10.2128
            2797         73.7249         69.5213        -3.81012         10.3721
            2798         73.8563         69.7198        -3.57164         10.5218
            2799         73.9716         69.9221        -3.30155         10.6605
            2800         74.0693         70.1280        -2.99806         10.7871
            2801         74.1477         70.3371        -2.65931         10.9002
            2802         74.2048         70.5491        -2.28334         10.9983
            2803         74.2391         70.7635        -1.86813         11.0798
            2804         74.2486         70.9799        -1.41160         11.1433
            2805         74.2315         71.1979    -911.571E-03         11.1870
            2806         74.1861         71.4170    -365.821E-03         11.2090
            2807         74.1105         71.6367     227.955E-03         11.2075
            2808         74.0030         71.8565     872.117E-03         11.1804
            2809         73.8620         72.0757         1.56910         11.1254
            2810         73.6860         72.2938         2.32140         11.0402
            2811         73.4735         72.5102         3.13158         10.9223
            2812         73.2234         72.7242         4.00230         10.7688
            2813         72.9348         72.9351         4.93626         10.5768
            2814         72.6070         73.1423         5.93627         10.3431
            2815         72.2399         73.3448         7.00523         10.0641
            2816         71.8336         73.5420         8.14618         9.73596
            2817         71.3891         73.7329         9.36227         9.35454
            2818         70.9080         73.9165         10.6568         8.91527
            2819         70.3929         74.0918         12.0334         8.41320
            2820         69.8475         74.2574         13.4958         7.84293
            2821         69.2771         74.4121         15.0479         7.19858
            2822         68.6886         74.5542         16.6944         6.47379
            2823         68.0915         74.6819         18.4399         5.66166
            2824         67.4979         74.7930         20.2897         4.75477
            2825         66.9234         74.8852         22.2497         3.74512
            2826         66.3880         74.9555         24.3264         2.62421
            2827         65.9165         75.0007         26.5268         1.38290
            2828         65.5396         75.0168         28.8595     11.3500E-03
            2829         54.1684         59.6285         17.8895         6.46394
            2830         54.5919         59.9185         17.2189         6.46246
            2831         55.0283         60.2100         16.5375         6.45783
            2832         55.4758         60.5018         15.8471         6.44828
            2833         55.9323         60.7929         15.1496         6.43239
            2834         56.3957         61.0818         14.4473         6.40905
            2835         56.8636         61.3673         13.7426         6.37751
            2836         57.3339         61.6479         13.0380         6.33733
            2837         57.8043         61.9225         12.3359         6.28840
            2838         58.2725         62.1898         11.6389         6.23096
            2839         58.7366         62.4486         10.9491         6.16548
            2840         59.1947         62.6980         10.2689         6.09272
            2841         59.6452         62.9373         9.60017         6.01360
            2842         60.0866         63.1658         8.94462         5.92923
            2843         60.5178         63.3831         8.30377         5.84082
            2844         60.9379         63.5891         7.67884         5.74966
            2845         61.3461         63.7836         7.07085         5.65706
            2846         61.7421         63.9668         6.48054         5.56433
            2847         62.1256         64.1388         5.90844         5.47277
            2848         62.4966         64.3002         5.35487         5.38361
            2849         62.8550         64.4513         4.81998         5.29800
            2850         63.2012         64.5927         4.30375         5.21701
            2851         63.5356         64.7250         3.80602         5.14164
            2852         63.8586         64.8489         3.32654         5.07275
            2853         64.1708         64.9652         2.86493         5.01113
            2854         64.4728         65.0745         2.42077         4.95745
            2855         64.7653         65.1776         1.99358         4.91230
            2856         65.0489         65.2752         1.58282         4.87616
            2857         65.3245         65.3680         1.18796         4.84942
            2858         65.5926         65.4569     808.445E-03         4.83241
            2859         65.8541         65.5423     443.709E-03         4.82535
            2860         66.1097         65.6251     93.2131E-03         4.82841
            2861         66.3600         65.7059    -243.573E-03         4.84169
            2862         66.6059         65.7852    -567.154E-03         4.86524
            2863         66.8478         65.8637    -878.004E-03         4.89904
            2864         67.0866         65.9419        -1.17656         4.94303
            2865         67.3227         66.0204        -1.46324         4.99711
            2866         67.5568         66.0995        -1.73839         5.06114
            2867         67.7894         66.1799        -2.00234         5.13493
            2868         68.0210         66.2618        -2.25536         5.21829
            2869         68.2520         66.3458        -2.49768         5.31097
            2870         68.4829         66.4322        -2.72949         5.41271
            2871         68.7140         66.5214        -2.95091         5.52321
            2872         68.9457         66.6137        -3.16202         5.64217
            2873         69.1783         66.7094        -3.36286         5.76924
            2874         69.4119         66.8088        -3.55341         5.90408
            2875         69.6468         66.9122        -3.73358         6.04630
            2876         69.8830         67.0198        -3.90325         6.19551
            2877         70.1207         67.1319        -4.06223         6.35129
            2878         70.3599         67.2487        -4.21029         6.51321
            2879         70.6005         67.3703        -4.34713         6.68081
            2880         70.8424         67.4970        -4.47239         6.85361
            2881         71.0854         67.6290        -4.58566         7.03112
            2882         71.3294         67.7662        -4.68647         7.21281
            2883         71.5740         67.9090        -4.77427         7.39814
            2884         71.8188         68.0573        -4.84848         7.58655
            2885         72.0635         68.2113        -4.90842         7.77743
            2886         72.3075         68.3710        -4.95338         7.97018
            2887         72.5502         68.5366        -4.98255         8.16414
            2888         72.7910         68.7079        -4.99507         8.35864
            2889         73.0291         68.8850        -4.99001         8.55297
            2890         73.2636         69.0680        -4.96636         8.74639
            2891         73.4938         69.2566        -4.92304         8.93812
            2892         73.7186         69.4510        -4.85891         9.12736
            2893         73.9369         69.6510        -4.77272         9.31326
            2894         74.1477         69.8564        -4.66319         9.49491
            2895         74.3496         70.0672        -4.52892         9.67140
            2896         74.5413         70.2831        -4.36846         9.84174
            2897         74.7216         70.5041        -4.18026         10.0049
            2898         74.8888         70.7297        -3.96270         10.1598
            2899         75.0415         70.9598        -3.71409         10.3053
            2900         75.1781         71.1940        -3.43263         10.4402
            2901         75.2970         71.4322        -3.11646         10.5633
            2902         75.3963         71.6738        -2.76365         10.6732
            2903         75.4743         71.9185        -2.37216         10.7685
            2904         75.5293         72.1658        -1.93989         10.8477
            2905         75.5595         72.4154        -1.46464         10.9093
            2906         75.5630         72.6667    -944.168E-03         10.9516
            2907         75.5379         72.9192    -376.113E-03         10.9727
            2908         75.4826         73.1723     241.949E-03         10.9709
            2909         75.3952         73.4254     912.518E-03         10.9440
            2910         75.2742         73.6780         1.63818         10.8899
            2911         75.1179         73.9293         2.42161         10.8062
            2912         74.9250         74.1786         3.26556         10.6905
            2913         74.6942         74.4252         4.17289         10.5399
            2914         74.4246         74.6683         5.14657         10.3516
            2915         74.1156         74.9071         6.18963         10.1224
            2916         73.7668         75.1405         7.30530         9.84871
            2917         73.3784         75.3678         8.49691         9.52687
            2918         72.9513         75.5877         9.76798         9.15278
            2919         72.4870         75.7991         11.1222         8.72198
            2920         71.9881         76.0007         12.5636         8.22963
            2921         71.4583         76.1911         14.0962         7.67050
            2922         70.9027         76.3686         15.7248         7.03891
            2923         70.3283         76.5314         17.4540         6.32872
            2924         69.7444         76.6773         19.2894         5.53330
            2925         69.1631         76.8040         21.2366         4.64555
            2926         68.5999         76.9088         23.3021         3.65782
            2927         68.0745         76.9884         25.4928         2.56204
            2928         67.6115         77.0394         27.8164         1.34952
            2929         67.2413         77.0574         30.2818     10.9603E-03
            2930         54.0720         59.6340         17.8910         6.17511
            2931         54.4948         59.9234         17.2223         6.17191
            2932         54.9302         60.2141         16.5445         6.16645
            2933         55.3764         60.5051         15.8592         6.15710
            2934         55.8318         60.7953         15.1680         6.14257
            2935         56.2943         61.0837         14.4730         6.12183
            2936         56.7620         61.3690         13.7761         6.09415
            2937         57.2328         61.6501         13.0796         6.05909
            2938         57.7047         61.9259         12.3856         6.01648
            2939         58.1756         62.1953         11.6964         5.96645
            2940         58.6436         62.4572         11.0139         5.90937
            2941         59.1071         62.7108         10.3401         5.84583
            2942         59.5645         62.9555         9.67692         5.77661
            2943         60.0143         63.1905         9.02583         5.70264
            2944         60.4555         63.4155         8.38826         5.62495
            2945         60.8870         63.6303         7.76540         5.54467
            2946         61.3082         63.8347         7.15823         5.46295
            2947         61.7185         64.0288         6.56750         5.38096
            2948         62.1176         64.2128         5.99378         5.29986
            2949         62.5053         64.3870         5.43745         5.22078
            2950         62.8816         64.5517         4.89872         5.14477
            2951         63.2467         64.7074         4.37766         5.07283
            2952         63.6008         64.8547         3.87419         5.00589
            2953         63.9443         64.9942         3.38815         4.94478
            2954         64.2776         65.1265         2.91928         4.89025
            2955         64.6012         65.2523         2.46723         4.84297
            2956         64.9158         65.3722         2.03161         4.80349
            2957         65.2220         65.4870         1.61199         4.77231
            2958         65.5203         65.5973         1.20791         4.74984
            2959         65.8115         65.7038     818.878E-03         4.73640
            2960         66.0963         65.8072     444.423E-03         4.73225
            2961         66.3753         65.9081     84.0630E-03         4.73758
            2962         66.6491         66.0071    -262.671E-03         4.75251
            2963         66.9185         66.1049    -596.228E-03         4.77710
            2964         67.1841         66.2020    -917.031E-03         4.81139
            2965         67.4464         66.2989        -1.22548         4.85533
            2966         67.7061         66.3963        -1.52193         4.90884
            2967         67.9638         66.4945        -1.80671         4.97183
            2968         68.2199         66.5941        -2.08011         5.04413
            2969         68.4749         66.6955        -2.34237         5.12556
            2970         68.7294         66.7991        -2.59369         5.21591
            2971         68.9836         66.9054        -2.83423         5.31494
            2972         69.2380         67.0147        -3.06410         5.42238
            2973         69.4929         67.1273        -3.28334         5.53794
            2974         69.7486         67.2436        -3.49198         5.66131
            2975         70.0052         67.3639        -3.68996         5.79215
            2976         70.2630         67.4885        -3.87719         5.93011
            2977         70.5221         67.6176        -4.05353         6.07480
            2978         70.7826         67.7515        -4.21876         6.22584
            2979         71.0445         67.8905        -4.37263         6.38280
            2980         71.3076         68.0346        -4.51482         6.54525
            2981         71.5721         68.1842        -4.64496         6.71272
            2982         71.8375         68.3394        -4.76260         6.88475
            2983         72.1038         68.5003        -4.86726         7.06082
            2984         72.3707         68.6672        -4.95838         7.24042
            2985         72.6376         68.8399        -5.03532         7.42299
            2986         72.9043         69.0188        -5.09741         7.60796
            2987         73.1702         69.2038        -5.14388         7.79473
            2988         73.4347         69.3951        -5.17392         7.98268
            2989         73.6972         69.5925        -5.18663         8.17115
            2990         73.9568         69.7962        -5.18104         8.35946
            2991         74.2129         70.0061        -5.15612         8.54689
            2992         74.4644         70.2222        -5.11075         8.73270
            2993         74.7104         70.4444        -5.04375         8.91608
            2994         74.9498         70.6725        -4.95384         9.09623
            2995         75.1815         70.9066        -4.83969         9.27228
            2996         75.4043         71.1464        -4.69986         9.44332
            2997         75.6167         71.3917        -4.53284         9.60841
            2998         75.8176         71.6423        -4.33705         9.76654
            2999         76.0053         71.8980        -4.11081         9.91667
            3000         76.1784         72.1586        -3.85237         10.0577
            3001         76.3353         72.4235        -3.55986         10.1884
            3002         76.4742         72.6927        -3.23138         10.3077
            3003         76.5936         72.9655        -2.86490         10.4142
            3004         76.6916         73.2417        -2.45831         10.5065
            3005         76.7665         73.5208        -2.00943         10.5832
            3006         76.8163         73.8022        -1.51597         10.6427
            3007         76.8394         74.0855    -975.573E-03         10.6835
            3008         76.8339         74.3701    -385.774E-03         10.7037
            3009         76.7980         74.6553     255.981E-03         10.7015
            3010         76.7299         74.9405     952.326E-03         10.6749
            3011         76.6280         75.2251         1.70600         10.6218
            3012         76.4907         75.5082         2.51985         10.5398
            3013         76.3166         75.7891         3.39683         10.4266
            3014         76.1044         76.0669         4.33999         10.2793
            3015         75.8531         76.3408         5.35252         10.0952
            3016         75.5620         76.6098         6.43774         9.87103
            3017         75.2309         76.8728         7.59913         9.60350
            3018         74.8598         77.1287         8.84034         9.28890
            3019         74.4496         77.3763         10.1652         8.92325
            3020         74.0018         77.6142         11.5778         8.50221
            3021         73.5188         77.8408         13.0825         8.02111
            3022         73.0043         78.0547         14.6839         7.47488
            3023         72.4635         78.2538         16.3869         6.85803
            3024         71.9032         78.4362         18.1969         6.16468
            3025         71.3328         78.5993         20.1197         5.38848
            3026         70.7643         78.7407         22.1616         4.52262
            3027         70.2130         78.8573         24.3294         3.55986
            3028         69.6985         78.9457         26.6306         2.49251
            3029         69.2452         79.0021         29.0733         1.31235
            3030         68.8831         79.0220         31.6668     10.5919E-03
            3031         53.9858         59.6459         17.8945         5.88654
            3032         54.4084         59.9351         17.2269         5.88192
            3033         54.8432         60.2253         16.5518         5.87578
            3034         55.2888         60.5156         15.8706         5.86665
            3035         55.7435         60.8053         15.1846         5.85333
            3036         56.2056         61.0934         14.4956         5.83487
            3037         56.6734         61.3788         13.8054         5.81058
            3038         57.1449         61.6605         13.1159         5.77999
            3039         57.6183         61.9375         12.4289         5.74292
            3040         58.0917         62.2089         11.7464         5.69942
            3041         58.5634         62.4737         11.0703         5.64975
            3042         59.0318         62.7312         10.4023         5.59438
            3043         59.4954         62.9807         9.74406         5.53396
            3044         59.9529         63.2217         9.09701         5.46928
            3045         60.4031         63.4537         8.46248         5.40121
            3046         60.8450         63.6765         7.84159         5.33073
            3047         61.2779         63.8900         7.23529         5.25885
            3048         61.7013         64.0942         6.64432         5.18662
            3049         62.1146         64.2891         6.06928         5.11508
            3050         62.5177         64.4750         5.51058         5.04524
            3051         62.9105         64.6523         4.96849         4.97807
            3052         63.2930         64.8214         4.44313         4.91450
            3053         63.6653         64.9827         3.93453         4.85538
            3054         64.0278         65.1367         3.44258         4.80151
            3055         64.3809         65.2840         2.96710         4.75360
            3056         64.7248         65.4253         2.50784         4.71229
            3057         65.0602         65.5612         2.06449         4.67813
            3058         65.3876         65.6922         1.63669         4.65160
            3059         65.7076         65.8191         1.22406         4.63312
            3060         66.0206         65.9424     826.184E-03         4.62301
            3061         66.3275         66.0629     442.655E-03         4.62155
            3062         66.6288         66.1811     73.0554E-03         4.62895
            3063         66.9250         66.2977    -283.025E-03         4.64533
            3064         67.2170         66.4131    -625.981E-03         4.67081
            3065         67.5051         66.5281    -956.188E-03         4.70541
            3066         67.7901         66.6431        -1.27400         4.74913
            3067         68.0724         66.7587        -1.57973         4.80191
            3068         68.3527         66.8754        -1.87367         4.86368
            3069         68.6314         66.9936        -2.15607         4.93429
            3070         68.9090         67.1138        -2.42715         5.01360
            3071         69.1860         67.2364        -2.68708         5.10141
            3072         69.4627         67.3619        -2.93598         5.19751
            3073         69.7395         67.4906        -3.17393         5.30165
            3074         70.0167         67.6230        -3.40098         5.41356
            3075         70.2946         67.7592        -3.61710         5.53296
            3076         70.5734         67.8997        -3.82223         5.65952
            3077         70.8533         68.0448        -4.01626         5.79292
            3078         71.1344         68.1947        -4.19901         5.93278
            3079         71.4167         68.3498        -4.37027         6.07875
            3080         71.7004         68.5101        -4.52974         6.23041
            3081         71.9852         68.6760        -4.67709         6.38736
            3082         72.2713         68.8478        -4.81194         6.54915
            3083         72.5582         69.0254        -4.93380         6.71532
            3084         72.8459         69.2092        -5.04218         6.88539
            3085         73.1340         69.3992        -5.13649         7.05886
            3086         73.4221         69.5956        -5.21608         7.23520
            3087         73.7099         69.7984        -5.28024         7.41385
            3088         73.9967         70.0078        -5.32818         7.59425
            3089         74.2821         70.2238        -5.35906         7.77578
            3090         74.5652         70.4464        -5.37195         7.95782
            3091         74.8455         70.6757        -5.36586         8.13970
            3092         75.1219         70.9115        -5.33971         8.32073
            3093         75.3938         71.1539        -5.29236         8.50020
            3094         75.6600         71.4029        -5.22259         8.67733
            3095         75.9195         71.6581        -5.12909         8.85135
            3096         76.1712         71.9197        -5.01046         9.02140
            3097         76.4138         72.1873        -4.86525         9.18663
            3098         76.6460         72.4608        -4.69190         9.34610
            3099         76.8665         72.7400        -4.48877         9.49886
            3100         77.0738         73.0246        -4.25413         9.64389
            3101         77.2663         73.3143        -3.98616         9.78012
            3102         77.4424         73.6088        -3.68297         9.90641
            3103         77.6006         73.9077        -3.34255         10.0216
            3104         77.7391         74.2105        -2.96282         10.1244
            3105         77.8561         74.5170        -2.54159         10.2135
            3106         77.9499         74.8264        -2.07659         10.2875
            3107         78.0186         75.1384        -1.56545         10.3448
            3108         78.0605         75.4524        -1.00570         10.3840
            3109         78.0736         75.7677    -394.770E-03         10.4032
            3110         78.0563         76.0837     270.024E-03         10.4007
            3111         78.0066         76.3996     991.451E-03         10.3744
            3112         77.9230         76.7148         1.77240         10.3224
            3113         77.8038         77.0284         2.61589         10.2424
            3114         77.6477         77.3395         3.52504         10.1319
            3115         77.4533         77.6472         4.50313         9.98833
            3116         77.2196         77.9505         5.55356         9.80888
            3117         76.9458         78.2483         6.67989         9.59049
            3118         76.6317         78.5394         7.88587         9.32987
            3119         76.2773         78.8226         9.17545         9.02342
            3120         75.8834         79.0965         10.5528         8.66730
            3121         75.4515         79.3595         12.0223         8.25731
            3122         74.9841         79.6100         13.5886         7.78892
            3123         74.4847         79.8461         15.2568         7.25727
            3124         73.9585         80.0657         17.0322         6.65708
            3125         73.4124         80.2665         18.9206         5.98272
            3126         72.8556         80.4459         20.9283         5.22812
            3127         72.3001         80.6011         23.0618         4.38680
            3128         71.7613         80.7288         25.3286         3.45187
            3129         71.2584         80.8254         27.7364         2.41606
            3130         70.8158         80.8869         30.2939         1.27158
            3131         70.4631         80.9086         33.0109     10.1644E-03
            3132         53.9087         59.6631         17.8995         5.59799
            3133         54.3316         59.9522         17.2324         5.59221
            3134         54.7664         60.2422         16.5593         5.58554
            3135         55.2117         60.5323         15.8813         5.57664
            3136         55.6662         60.8217         15.1996         5.56441
            3137         56.1283         61.1097         14.5157         5.54796
            3138         56.5964         61.3953         13.8311         5.52663
            3139         57.0687         61.6777         13.1474         5.49998
            3140         57.5437         61.9560         12.4665         5.46777
            3141         58.0195         62.2293         11.7900         5.43001
            3142         58.4946         62.4968         11.1194         5.38688
            3143         58.9676         62.7579         10.4565         5.33875
            3144         59.4368         63.0119         9.80264         5.28615
            3145         59.9012         63.2583         9.15924         5.22974
            3146         60.3596         63.4967         8.52748         5.17027
            3147         60.8109         63.7268         7.90843         5.10860
            3148         61.2545         63.9486         7.30299         5.04561
            3149         61.6898         64.1620         6.71191         4.98222
            3150         62.1161         64.3670         6.13578         4.91936
            3151         62.5334         64.5638         5.57504         4.85796
            3152         62.9413         64.7528         5.03000         4.79889
            3153         63.3398         64.9342         4.50083         4.74300
            3154         63.7291         65.1084         3.98762         4.69110
            3155         64.1093         65.2760         3.49033         4.64392
            3156         64.4807         65.4375         3.00886         4.60214
            3157         64.8437         65.5934         2.54302         4.56636
            3158         65.1986         65.7442         2.09257         4.53713
            3159         65.5460         65.8906         1.65723         4.51491
            3160         65.8862         66.0332         1.23669         4.50011
            3161         66.2200         66.1725     830.606E-03         4.49307
            3162         66.5478         66.3092     438.625E-03         4.49406
            3163         66.8702         66.4439     60.3927E-03         4.50329
            3164         67.1878         66.5772    -304.445E-03         4.52094
            3165         67.5012         66.7096    -656.233E-03         4.54709
            3166         67.8109         66.8418    -995.296E-03         4.58182
            3167         68.1175         66.9741        -1.32194         4.62513
            3168         68.4215         67.1072        -1.63645         4.67700
            3169         68.7234         67.2416        -1.93907         4.73735
            3170         69.0238         67.3777        -2.23003         4.80609
            3171         69.3230         67.5161        -2.50949         4.88307
            3172         69.6216         67.6570        -2.77761         4.96814
            3173         69.9198         67.8010        -3.03448         5.06109
            3174         70.2180         67.9485        -3.28017         5.16169
            3175         70.5167         68.0998        -3.51467         5.26972
            3176         70.8159         68.2553        -3.73796         5.38488
            3177         71.1159         68.4153        -3.94994         5.50690
            3178         71.4170         68.5802        -4.15048         5.63545
            3179         71.7191         68.7501        -4.33939         5.77019
            3180         72.0225         68.9255        -4.51642         5.91078
            3181         72.3270         69.1065        -4.68128         6.05683
            3182         72.6326         69.2934        -4.83360         6.20794
            3183         72.9393         69.4864        -4.97296         6.36370
            3184         73.2468         69.6857        -5.09889         6.52367
            3185         73.5549         69.8914        -5.21085         6.68738
            3186         73.8633         70.1038        -5.30824         6.85436
            3187         74.1717         70.3228        -5.39037         7.02409
            3188         74.4795         70.5487        -5.45653         7.19605
            3189         74.7863         70.7815        -5.50588         7.36968
            3190         75.0915         71.0213        -5.53757         7.54441
            3191         75.3944         71.2681        -5.55064         7.71963
            3192         75.6942         71.5218        -5.54406         7.89470
            3193         75.9902         71.7826        -5.51674         8.06896
            3194         76.2814         72.0503        -5.46749         8.24170
            3195         76.5668         72.3248        -5.39505         8.41222
            3196         76.8455         72.6061        -5.29808         8.57972
            3197         77.1161         72.8940        -5.17515         8.74343
            3198         77.3776         73.1883        -5.02475         8.90248
            3199         77.6286         73.4889        -4.84529         9.05601
            3200         77.8677         73.7954        -4.63508         9.20306
            3201         78.0935         74.1077        -4.39233         9.34268
            3202         78.3045         74.4253        -4.11518         9.47382
            3203         78.4991         74.7480        -3.80166         9.59539
            3204         78.6755         75.0754        -3.44972         9.70624
            3205         78.8322         75.4070        -3.05718         9.80516
            3206         78.9673         75.7423        -2.62181         9.89085
            3207         79.0792         76.0809        -2.14123         9.96195
            3208         79.1658         76.4221        -1.61298         10.0170
            3209         79.2256         76.7654        -1.03449         10.0544
            3210         79.2565         77.1101    -403.082E-03         10.0726
            3211         79.2568         77.4555     284.044E-03         10.0697
            3212         79.2247         77.8008         1.02979         10.0440
            3213         79.1586         78.1452         1.83721         9.99321
            3214         79.0567         78.4879         2.70946         9.91531
            3215         78.9178         78.8278         3.64986         9.80789
            3216         78.7404         79.1639         4.66187         9.66842
            3217         78.5235         79.4952         5.74911         9.49416
            3218         78.2663         79.8205         6.91538         9.28215
            3219         77.9685         80.1384         8.16469         9.02918
            3220         77.6302         80.4475         9.50124         8.73180
            3221         77.2521         80.7463         10.9295         8.38627
            3222         76.8357         81.0331         12.4542         7.98857
            3223         76.3834         81.3061         14.0804         7.53433
            3224         75.8988         81.5632         15.8133         7.01888
            3225         75.3870         81.8021         17.6588         6.43719
            3226         74.8549         82.0203         19.6231         5.78386
            3227         74.3118         82.2150         21.7126         5.05313
            3228         73.7696         82.3832         23.9346         4.23885
            3229         73.2435         82.5214         26.2967         3.33447
            3230         72.7529         82.6257         28.8072         2.33313
            3231         72.3217         82.6920         31.4750         1.22747
            3232         71.9793         82.7152         34.3104     9.72642E-03
            3233         53.8398         59.6845         17.9058         5.30923
            3234         54.2634         59.9739         17.2387         5.30253
            3235         54.6985         60.2638         16.5670         5.29547
            3236         55.1441         60.5538         15.8914         5.28682
            3237         55.5987         60.8432         15.2131         5.27557
            3238         56.0610         61.1313         14.5333         5.26091
            3239         56.5297         61.4173         13.8535         5.24219
            3240         57.0030         61.7005         13.1749         5.21899
            3241         57.4795         61.9800         12.4991         5.19105
            3242         57.9577         62.2552         11.8277         5.15834
            3243         58.4360         62.5253         11.1620         5.12098
            3244         58.9131         62.7897         10.5035         5.07925
            3245         59.3876         63.0478         9.85361         5.03359
            3246         59.8582         63.2992         9.21346         4.98454
            3247         60.3240         63.5434         8.58421         4.93276
            3248         60.7839         63.7803         7.96686         4.87898
            3249         61.2373         64.0097         7.36227         4.82398
            3250         61.6833         64.2315         6.77115         4.76857
            3251         62.1216         64.4458         6.19411         4.71358
            3252         62.5518         64.6527         5.63160         4.65983
            3253         62.9737         64.8524         5.08395         4.60814
            3254         63.3870         65.0453         4.55139         4.55928
            3255         63.7920         65.2316         4.03404         4.51398
            3256         64.1886         65.4119         3.53193         4.47294
            3257         64.5771         65.5865         3.04501         4.43679
            3258         64.9578         65.7560         2.57316         4.40610
            3259         65.3310         65.9209         2.11621         4.38140
            3260         65.6970         66.0818         1.67394         4.36313
            3261         66.0565         66.2392         1.24610         4.35169
            3262         66.4097         66.3937     832.413E-03         4.34741
            3263         66.7573         66.5459     432.577E-03         4.35059
            3264         67.0997         66.6963     46.2995E-03         4.36142
            3265         67.4375         66.8455    -326.722E-03         4.38009
            3266         67.7712         66.9940    -686.783E-03         4.40672
            3267         68.1014         67.1425        -1.03416         4.44137
            3268         68.4285         67.2915        -1.36913         4.48408
            3269         68.7532         67.4413        -1.69191         4.53483
            3270         69.0757         67.5927        -2.00273         4.59358
            3271         69.3967         67.7460        -2.30178         4.66024
            3272         69.7166         67.9017        -2.58919         4.73470
            3273         70.0358         68.0602        -2.86509         4.81680
            3274         70.3546         68.2221        -3.12954         4.90638
            3275         70.6734         68.3876        -3.38257         5.00323
            3276         70.9924         68.5571        -3.62418         5.10713
            3277         71.3120         68.7311        -3.85429         5.21782
            3278         71.6324         68.9099        -4.07281         5.33502
            3279         71.9536         69.0937        -4.27958         5.45846
            3280         72.2759         69.2829        -4.47437         5.58780
            3281         72.5993         69.4778        -4.65693         5.72272
            3282         72.9237         69.6787        -4.82694         5.86285
            3283         73.2492         69.8857        -4.98400         6.00782
            3284         73.5755         70.0991        -5.12770         6.15723
            3285         73.9026         70.3191        -5.25753         6.31066
            3286         74.2302         70.5459        -5.37292         6.46768
            3287         74.5580         70.7797        -5.47326         6.62782
            3288         74.8856         71.0205        -5.55784         6.79059
            3289         75.2125         71.2684        -5.62590         6.95551
            3290         75.5383         71.5236        -5.67662         7.12202
            3291         75.8624         71.7862        -5.70909         7.28959
            3292         76.1840         72.0561        -5.72233         7.45762
            3293         76.5024         72.3333        -5.71529         7.62552
            3294         76.8169         72.6179        -5.68684         7.79264
            3295         77.1265         72.9097        -5.63576         7.95831
            3296         77.4302         73.2088        -5.56076         8.12185
            3297         77.7270         73.5149        -5.46046         8.28251
            3298         78.0157         73.8280        -5.33340         8.43952
            3299         78.2951         74.1478        -5.17802         8.59208
            3300         78.5639         74.4742        -4.99269         8.73933
            3301         78.8207         74.8069        -4.77567         8.88038
            3302         79.0642         75.1455        -4.52514         9.01429
            3303         79.2927         75.4899        -4.23915         9.14006
            3304         79.5046         75.8395        -3.91570         9.25664
            3305         79.6985         76.1941        -3.55266         9.36293
            3306         79.8724         76.5531        -3.14780         9.45775
            3307         80.0248         76.9160        -2.69879         9.53986
            3308         80.1537         77.2823        -2.20319         9.60792
            3309         80.2574         77.6515        -1.65844         9.66053
            3310         80.3341         78.0227        -1.06187         9.69620
            3311         80.3819         78.3954    -410.700E-03         9.71331
            3312         80.3991         78.7689     297.994E-03         9.71015
            3313         80.3837         79.1421         1.06725         9.68488
            3314         80.3342         79.5144         1.90024         9.63553
            3315         80.2489         79.8847         2.80031         9.55998
            3316         80.1263         80.2520         3.77093         9.45595
            3317         79.9651         80.6152         4.81575         9.32098
            3318         79.7643         80.9731         5.93862         9.15241
            3319         79.5230         81.3243         7.14354         8.94739
            3320         79.2408         81.6676         8.43475         8.70283
            3321         78.9180         82.0012         9.81675         8.41540
            3322         78.5550         82.3237         11.2942         8.08151
            3323         78.1535         82.6330         12.8723         7.69729
            3324         77.7159         82.9272         14.5562         7.25857
            3325         77.2457         83.2041         16.3517         6.76089
            3326         76.7481         83.4612         18.2648         6.19944
            3327         76.2299         83.6958         20.3020         5.56910
            3328         75.7005         83.9049         22.4704         4.86439
            3329         75.1716         84.0853         24.7774         4.07950
            3330         74.6585         84.2332         27.2310         3.20824
            3331         74.1804         84.3448         29.8399         2.24413
            3332         73.7611         84.4155         32.6135         1.18027
            3333         73.4299         84.4403         35.5620     9.30176E-03
            3334         53.7784         59.7094         17.9131         5.02009
            3335         54.2029         59.9991         17.2457         5.01268
            3336         54.6388         60.2892         16.5747         5.00536
            3337         55.0848         60.5793         15.9009         4.99699
            3338         55.5399         60.8688         15.2253         4.98664
            3339         56.0027         61.1572         14.5489         4.97356
            3340         56.4721         61.4437         13.8730         4.95715
            3341         56.9465         61.7277         13.1987         4.93698
            3342         57.4247         62.0085         12.5274         4.91280
            3343         57.9051         62.2855         11.8603         4.88453
            3344         58.3864         62.5580         11.1989         4.85225
            3345         58.8673         62.8255         10.5443         4.81617
            3346         59.3465         63.0874         9.89783         4.77665
            3347         59.8229         63.3434         9.26057         4.73414
            3348         60.2955         63.5930         8.63357         4.68921
            3349         60.7632         63.8361         8.01776         4.64249
            3350         61.2254         64.0725         7.41396         4.59465
            3351         61.6814         64.3021         6.82286         4.54641
            3352         62.1306         64.5249         6.24504         4.49851
            3353         62.5726         64.7410         5.68098         4.45169
            3354         63.0073         64.9507         5.13102         4.40669
            3355         63.4343         65.1542         4.59543         4.36421
            3356         63.8537         65.3517         4.07437         4.32493
            3357         64.2656         65.5438         3.56790         4.28948
            3358         64.6699         65.7307         3.07604         4.25846
            3359         65.0671         65.9130         2.59871         4.23241
            3360         65.4573         66.0911         2.13582         4.21182
            3361         65.8409         66.2656         1.68718         4.19713
            3362         66.2182         66.4369         1.25261         4.18871
            3363         66.5897         66.6057     831.889E-03         4.18690
            3364         66.9559         66.7724     424.773E-03         4.19197
            3365         67.3172         66.9377     31.0173E-03         4.20415
            3366         67.6740         67.1020    -349.631E-03         4.22361
            3367         68.0270         67.2659    -717.419E-03         4.25048
            3368         68.3766         67.4300        -1.07258         4.28484
            3369         68.7232         67.5947        -1.41535         4.32674
            3370         69.0674         67.7606        -1.74591         4.37617
            3371         69.4095         67.9281        -2.06445         4.43312
            3372         69.7502         68.0978        -2.37112         4.49750
            3373         70.0897         68.2701        -2.66604         4.56923
            3374         70.4284         68.4455        -2.94929         4.64816
            3375         70.7668         68.6243        -3.22091         4.73416
            3376         71.1051         68.8071        -3.48092         4.82703
            3377         71.4437         68.9941        -3.72926         4.92657
            3378         71.7827         69.1857        -3.96587         5.03254
            3379         72.1224         69.3824        -4.19060         5.14469
            3380         72.4629         69.5844        -4.40328         5.26275
            3381         72.8043         69.7921        -4.60367         5.38643
            3382         73.1467         70.0057        -4.79150         5.51540
            3383         73.4901         70.2255        -4.96641         5.64933
            3384         73.8344         70.4518        -5.12801         5.78786
            3385         74.1795         70.6847        -5.27585         5.93062
            3386         74.5253         70.9246        -5.40939         6.07721
            3387         74.8713         71.1715        -5.52806         6.22721
            3388         75.2175         71.4257        -5.63121         6.38019
            3389         75.5633         71.6872        -5.71813         6.53569
            3390         75.9084         71.9563        -5.78802         6.69322
            3391         76.2522         72.2329        -5.84004         6.85228
            3392         76.5942         72.5172        -5.87326         7.01234
            3393         76.9335         72.8091        -5.88667         7.17286
            3394         77.2697         73.1087        -5.87919         7.33324
            3395         77.6016         73.4160        -5.84965         7.49289
            3396         77.9286         73.7309        -5.79683         7.65116
            3397         78.2496         74.0533        -5.71938         7.80738
            3398         78.5636         74.3831        -5.61590         7.96086
            3399         78.8693         74.7201        -5.48489         8.11086
            3400         79.1657         75.0643        -5.32475         8.25661
            3401         79.4514         75.4152        -5.13380         8.39729
            3402         79.7250         75.7728        -4.91026         8.53204
            3403         79.9851         76.1366        -4.65226         8.65997
            3404         80.2302         76.5064        -4.35782         8.78011
            3405         80.4587         76.8817        -4.02484         8.89147
            3406         80.6689         77.2621        -3.65116         8.99298
            3407         80.8593         77.6471        -3.23447         9.08351
            3408         81.0279         78.0363        -2.77238         9.16185
            3409         81.1731         78.4291        -2.26235         9.22674
            3410         81.2930         78.8247        -1.70174         9.27683
            3411         81.3857         79.2225        -1.08780         9.31065
            3412         81.4496         79.6219    -417.625E-03         9.32668
            3413         81.4826         80.0219     311.817E-03         9.32325
            3414         81.4832         80.4218         1.10369         9.29859
            3415         81.4494         80.8204         1.96131         9.25080
            3416         81.3798         81.2170         2.88817         9.17783
            3417         81.2727         81.6102         3.88790         9.07749
            3418         81.1269         81.9990         4.96434         8.94741
            3419         80.9414         82.3821         6.12152         8.78503
            3420         80.7152         82.7580         7.36367         8.58762
            3421         80.4480         83.1252         8.69526         8.35219
            3422         80.1399         83.4820         10.1210         8.07558
            3423         79.7915         83.8267         11.6459         7.75433
            3424         79.4044         84.1572         13.2753         7.38475
            3425         78.9809         84.4714         15.0147         6.96287
            3426         78.5248         84.7669         16.8703         6.48444
            3427         78.0409         85.0411         18.8483         5.94491
            3428         77.5365         85.2910         20.9556         5.33941
            3429         77.0205         85.5137         23.1995         4.66276
            3430         76.5049         85.7054         25.5878         3.90948
            3431         76.0049         85.8626         28.1290         3.07374
            3432         75.5396         85.9809         30.8319         2.14945
            3433         75.1327         86.0558         33.7062         1.13012
            3434         74.8131         86.0820         36.7628     8.85583E-03
            3435         53.7236         59.7368         17.9213         4.73042
            3436         54.1494         60.0269         17.2530         4.72251
            3437         54.5862         60.3174         16.5823         4.71504
            3438         55.0330         60.6078         15.9098         4.70697
            3439         55.4887         60.8976         15.2363         4.69746
            3440         55.9523         61.1863         14.5627         4.68579
            3441         56.4226         61.4734         13.8900         4.67141
            3442         56.8983         61.7583         13.2193         4.65391
            3443         57.3780         62.0404         12.5517         4.63303
            3444         57.8606         62.3191         11.8885         4.60866
            3445         58.3448         62.5940         11.2307         4.58085
            3446         58.8292         62.8643         10.5795         4.54976
            3447         59.3128         63.1298         9.93605         4.51567
            3448         59.7945         63.3900         9.30134         4.47896
            3449         60.2732         63.6446         8.67635         4.44012
            3450         60.7480         63.8934         8.06192         4.39968
            3451         61.2183         64.1361         7.45884         4.35823
            3452         61.6833         64.3729         6.86778         4.31642
            3453         62.1424         64.6035         6.28930         4.27490
            3454         62.5954         64.8282         5.72388         4.23432
            3455         63.0417         65.0471         5.17188         4.19535
            3456         63.4813         65.2604         4.63357         4.15864
            3457         63.9141         65.4683         4.10916         4.12479
            3458         64.3399         65.6713         3.59876         4.09440
            3459         64.7590         65.8697         3.10241         4.06802
            3460         65.1714         66.0639         2.62010         4.04616
            3461         65.5775         66.2543         2.15177         4.02927
            3462         65.9774         66.4415         1.69729         4.01778
            3463         66.3714         66.6259         1.25654         4.01204
            3464         66.7601         66.8081     829.333E-03         4.01238
            3465         67.1437         66.9886     415.486E-03         4.01906
            3466         67.5226         67.1679     14.7998E-03         4.03232
            3467         67.8974         67.3465    -372.932E-03         4.05231
            3468         68.2685         67.5249    -747.915E-03         4.07919
            3469         68.6364         67.7037        -1.11034         4.11304
            3470         69.0014         67.8834        -1.46039         4.15391
            3471         69.3640         68.0645        -1.79824         4.20182
            3472         69.7247         68.2474        -2.12402         4.25675
            3473         70.0839         68.4327        -2.43786         4.31866
            3474         70.4420         68.6208        -2.73983         4.38745
            3475         70.7994         68.8121        -3.03001         4.46301
            3476         71.1563         69.0072        -3.30840         4.54521
            3477         71.5131         69.2063        -3.57498         4.63389
            3478         71.8702         69.4100        -3.82969         4.72884
            3479         72.2276         69.6185        -4.07243         4.82987
            3480         72.5856         69.8323        -4.30305         4.93673
            3481         72.9443         70.0516        -4.52133         5.04918
            3482         73.3039         70.2768        -4.72704         5.16693
            3483         73.6644         70.5082        -4.91986         5.28969
            3484         74.0258         70.7461        -5.09943         5.41715
            3485         74.3879         70.9907        -5.26533         5.54897
            3486         74.7508         71.2423        -5.41709         5.68479
            3487         75.1141         71.5010        -5.55417         5.82425
            3488         75.4778         71.7671        -5.67595         5.96694
            3489         75.8413         72.0407        -5.78179         6.11246
            3490         76.2044         72.3220        -5.87092         6.26037
            3491         76.5667         72.6111        -5.94256         6.41021
            3492         76.9275         72.9081        -5.99582         6.56150
            3493         77.2863         73.2130        -6.02975         6.71375
            3494         77.6425         73.5259        -6.04332         6.86643
            3495         77.9953         73.8468        -6.03542         7.01898
            3496         78.3439         74.1756        -6.00486         7.17084
            3497         78.6873         74.5124        -5.95037         7.32138
            3498         79.0246         74.8570        -5.87060         7.46999
            3499         79.3548         75.2092        -5.76409         7.61599
            3500         79.6766         75.5691        -5.62931         7.75868
            3501         79.9890         75.9362        -5.46463         7.89732
            3502         80.2906         76.3105        -5.26833         8.03115
            3503         80.5800         76.6917        -5.03858         8.15933
            3504         80.8559         77.0794        -4.77345         8.28102
            3505         81.1166         77.4732        -4.47093         8.39530
            3506         81.3607         77.8728        -4.12886         8.50121
            3507         81.5865         78.2778        -3.74502         8.59772
            3508         81.7922         78.6876        -3.31703         8.68377
            3509         81.9763         79.1016        -2.84242         8.75821
            3510         82.1368         79.5194        -2.31859         8.81980
            3511         82.2719         79.9401        -1.74282         8.86726
            3512         82.3799         80.3632        -1.11224         8.89920
            3513         82.4589         80.7877    -423.869E-03         8.91413
            3514         82.5070         81.2129     325.450E-03         8.91047
            3515         82.5225         81.6379         1.13900         8.88651
            3516         82.5037         82.0616         2.02023         8.84044
            3517         82.4489         82.4829         2.97277         8.77029
            3518         82.3565         82.9007         4.00042         8.67395
            3519         82.2254         83.3136         5.10718         8.54915
            3520         82.0543         83.7204         6.29728         8.39346
            3521         81.8425         84.1195         7.57513         8.20424
            3522         81.5895         84.5093         8.94543         7.97866
            3523         81.2955         84.8879         10.4131         7.71369
            3524         80.9610         85.2536         11.9835         7.40605
            3525         80.5877         85.6040         13.6620         7.05222
            3526         80.1779         85.9370         15.4546         6.64844
            3527         79.7352         86.2499         17.3676         6.19069
            3528         79.2648         86.5401         19.4076         5.67464
            3529         78.7736         86.8044         21.5818         5.09572
            3530         78.2709         87.0397         23.8978         4.44906
            3531         77.7685         87.2421         26.3637         3.72947
            3532         77.2815         87.4078         28.9882         2.93151
            3533         76.8291         87.5324         31.7805         2.04945
            3534         76.4347         87.6112         34.7506         1.07722
            3535         76.1272         87.6388         37.9097     8.37536E-03
            3536         53.6749         59.7659         17.9299         4.44012
            3537         54.1022         60.0567         17.2606         4.43188
            3538         54.5401         60.3476         16.5899         4.42437
            3539         54.9879         60.6384         15.9182         4.41664
            3540         55.4445         60.9285         15.2463         4.40790
            3541         55.9090         61.2178         14.5749         4.39750
            3542         56.3803         61.5056         13.9049         4.38492
            3543         56.8572         61.7914         13.2371         4.36976
            3544         57.3386         62.0748         12.5727         4.35177
            3545         57.8233         62.3552         11.9127         4.33084
            3546         58.3101         62.6322         11.2580         4.30696
            3547         58.7978         62.9052         10.6098         4.28025
            3548         59.2854         63.1740         9.96898         4.25095
            3549         59.7719         63.4381         9.33651         4.21938
            3550         60.2562         63.6973         8.71328         4.18593
            3551         60.7376         63.9512         8.10008         4.15107
            3552         61.2152         64.1999         7.49766         4.11532
            3553         61.6884         64.4432         6.90664         4.07925
            3554         62.1567         64.6811         6.32758         4.04342
            3555         62.6195         64.9136         5.76095         4.00843
            3556         63.0766         65.1409         5.20712         3.97488
            3557         63.5277         65.3633         4.66639         3.94334
            3558         63.9727         65.5808         4.13897         3.91438
            3559         64.4115         65.7939         3.62501         3.88854
            3560         64.8441         66.0029         3.12460         3.86632
            3561         65.2707         66.2082         2.63775         3.84820
            3562         65.6914         66.4101         2.16446         3.83461
            3563         66.1065         66.6092         1.70464         3.82594
            3564         66.5161         66.8059         1.25822         3.82254
            3565         66.9207         67.0007     825.050E-03         3.82470
            3566         67.3205         67.1940     404.998E-03         3.83271
            3567         67.7161         67.3865    -2.09222E-03         3.84676
            3568         68.1077         67.5785    -396.384E-03         3.86704
            3569         68.4957         67.7706    -778.041E-03         3.89369
            3570         68.8807         67.9633        -1.14722         3.92679
            3571         69.2630         68.1571        -1.50406         3.96642
            3572         69.6430         68.3525        -1.84870         4.01260
            3573         70.0212         68.5500        -2.18124         4.06532
            3574         70.3979         68.7501        -2.50178         4.12454
            3575         70.7735         68.9531        -2.81037         4.19019
            3576         71.1484         69.1596        -3.10704         4.26218
            3577         71.5228         69.3700        -3.39178         4.34038
            3578         71.8971         69.5848        -3.66454         4.42464
            3579         72.2716         69.8042        -3.92525         4.51481
            3580         72.6464         70.0287        -4.17376         4.61067
            3581         73.0217         70.2587        -4.40992         4.71202
            3582         73.3977         70.4944        -4.63349         4.81861
            3583         73.7745         70.7363        -4.84421         4.93021
            3584         74.1520         70.9846        -5.04175         5.04652
            3585         74.5303         71.2396        -5.22572         5.16725
            3586         74.9093         71.5016        -5.39569         5.29209
            3587         75.2889         71.7708        -5.55116         5.42072
            3588         75.6689         72.0474        -5.69158         5.55277
            3589         76.0490         72.3317        -5.81632         5.68787
            3590         76.4290         72.6237        -5.92469         5.82565
            3591         76.8084         72.9237        -6.01593         5.96568
            3592         77.1868         73.2318        -6.08922         6.10754
            3593         77.5637         73.5480        -6.14366         6.25077
            3594         77.9385         73.8725        -6.17826         6.39491
            3595         78.3105         74.2052        -6.19199         6.53945
            3596         78.6789         74.5462        -6.18369         6.68388
            3597         79.0431         74.8955        -6.15216         6.82765
            3598         79.4019         75.2529        -6.09610         6.97018
            3599         79.7546         75.6185        -6.01412         7.11088
            3600         80.1001         75.9920        -5.90473         7.24911
            3601         80.4371         76.3734        -5.76638         7.38421
            3602         80.7645         76.7624        -5.59739         7.51548
            3603         81.0811         77.1587        -5.39600         7.64218
            3604         81.3854         77.5622        -5.16035         7.76355
            3605         81.6760         77.9724        -4.88846         7.87875
            3606         81.9515         78.3890        -4.57826         7.98694
            3607         82.2103         78.8116        -4.22755         8.08718
            3608         82.4506         79.2397        -3.83404         8.17852
            3609         82.6709         79.6728        -3.39530         8.25993
            3610         82.8694         80.1104        -2.90878         8.33031
            3611         83.0443         80.5517        -2.37182         8.38850
            3612         83.1939         80.9962        -1.78160         8.43325
            3613         83.3162         81.4430        -1.13517         8.46326
            3614         83.4094         81.8913    -429.450E-03         8.47710
            3615         83.4717         82.3403     338.822E-03         8.47325
            3616         83.5013         82.7889         1.17304         8.45011
            3617         83.4966         83.2361         2.07680         8.40591
            3618         83.4557         83.6808         3.05384         8.33880
            3619         83.3773         84.1216         4.10814         8.24677
            3620         83.2599         84.5573         5.24384         8.12764
            3621         83.1025         84.9864         6.46535         7.97910
            3622         82.9043         85.4073         7.77728         7.79866
            3623         82.6648         85.8183         9.18451         7.58362
            3624         82.3841         86.2174         10.6922         7.33109
            3625         82.0629         86.6026         12.3058         7.03797
            3626         81.7027         86.9716         14.0312         6.70096
            3627         81.3060         87.3222         15.8745         6.31647
            3628         80.8763         87.6514         17.8421         5.88073
            3629         80.4189         87.9565         19.9411         5.38966
            3630         79.9406         88.2343         22.1789         4.83898
            3631         79.4508         88.4813         24.5633         4.22409
            3632         78.9613         88.6937         27.1028         3.54016
            3633         78.4871         88.8673         29.8063         2.78208
            3634         78.0475         88.9978         32.6834         1.94451
            3635         77.6657         89.0802         35.7441         1.02178
            3636         77.3703         89.1091         39.0000     7.90671E-03
            3637         53.6316         59.7962         17.9389         4.14908
            3638         54.0605         60.0876         17.2683         4.14070
            3639         54.4998         60.3791         16.5972         4.13325
            3640         54.9487         60.6703         15.9261         4.12588
            3641         55.4063         60.9610         15.2553         4.11786
            3642         55.8718         61.2508         14.5856         4.10860
            3643         56.3442         61.5393         13.9177         4.09761
            3644         56.8225         61.8261         13.2525         4.08452
            3645         57.3055         62.1107         12.5908         4.06907
            3646         57.7922         62.3927         11.9335         4.05114
            3647         58.2815         62.6717         11.2815         4.03071
            3648         58.7723         62.9473         10.6358         4.00787
            3649         59.2636         63.2192         9.99725         3.98278
            3650         59.7545         63.4869         9.36672         3.95573
            3651         60.2439         63.7502         8.74503         3.92704
            3652         60.7312         64.0090         8.13292         3.89713
            3653         61.2155         64.2631         7.53107         3.86645
            3654         61.6962         64.5124         6.94009         3.83547
            3655         62.1727         64.7569         6.36052         3.80472
            3656         62.6446         64.9966         5.79282         3.77471
            3657         63.1115         65.2317         5.23735         3.74599
            3658         63.5732         65.4624         4.69444         3.71908
            3659         64.0294         65.6888         4.16431         3.69448
            3660         64.4801         65.9113         3.64714         3.67269
            3661         64.9252         66.1301         3.14305         3.65417
            3662         65.3648         66.3456         2.65209         3.63936
            3663         65.7990         66.5583         2.17428         3.62867
            3664         66.2281         66.7684         1.70959         3.62245
            3665         66.6521         66.9765         1.25798         3.62104
            3666         67.0715         67.1830     819.344E-03         3.62472
            3667         67.4865         67.3883     393.591E-03         3.63375
            3668         67.8974         67.5931    -19.3950E-03         3.64833
            3669         68.3047         67.7976    -419.738E-03         3.66864
            3670         68.7086         68.0026    -807.563E-03         3.69482
            3671         69.1096         68.2083        -1.18299         3.72696
            3672         69.5080         68.4154        -1.54613         3.76512
            3673         69.9043         68.6243        -1.89707         3.80936
            3674         70.2989         68.8355        -2.23591         3.85965
            3675         70.6920         69.0495        -2.56269         3.91599
            3676         71.0840         69.2666        -2.87744         3.97830
            3677         71.4753         69.4874        -3.18018         4.04651
            3678         71.8662         69.7123        -3.47085         4.12051
            3679         72.2569         69.9417        -3.74940         4.20017
            3680         72.6478         70.1760        -4.01571         4.28533
            3681         73.0389         70.4156        -4.26965         4.37582
            3682         73.4305         70.6609        -4.51100         4.47144
            3683         73.8227         70.9121        -4.73954         4.57197
            3684         74.2156         71.1697        -4.95496         4.67717
            3685         74.6091         71.4340        -5.15692         4.78680
            3686         75.0034         71.7051        -5.34503         4.90057
            3687         75.3983         71.9835        -5.51883         5.01820
            3688         75.7936         72.2694        -5.67780         5.13937
            3689         76.1892         72.5629        -5.82137         5.26376
            3690         76.5849         72.8643        -5.94888         5.39103
            3691         76.9802         73.1737        -6.05964         5.52079
            3692         77.3749         73.4913        -6.15287         5.65268
            3693         77.7685         73.8173        -6.22772         5.78629
            3694         78.1604         74.1517        -6.28327         5.92119
            3695         78.5501         74.4946        -6.31851         6.05694
            3696         78.9369         74.8460        -6.33238         6.19307
            3697         79.3201         75.2060        -6.32371         6.32910
            3698         79.6989         75.5745        -6.29127         6.46450
            3699         80.0723         75.9514        -6.23372         6.59875
            3700         80.4393         76.3367        -6.14965         6.73126
            3701         80.7990         76.7302        -6.03756         6.86146
            3702         81.1503         77.1319        -5.89583         6.98871
            3703         81.4918         77.5413        -5.72277         7.11235
            3704         81.8224         77.9584        -5.51658         7.23169
            3705         82.1407         78.3829        -5.27535         7.34600
            3706         82.4452         78.8143        -4.99707         7.45450
            3707         82.7345         79.2523        -4.67960         7.55638
            3708         83.0070         79.6965        -4.32072         7.65077
            3709         83.2610         80.1464        -3.91806         7.73676
            3710         83.4949         80.6015        -3.46914         7.81337
            3711         83.7070         81.0611        -2.97135         7.87956
            3712         83.8954         81.5247        -2.42194         7.93424
            3713         84.0584         81.9914        -1.81802         7.97623
            3714         84.1941         82.4605        -1.15657         8.00427
            3715         84.3007         82.9311    -434.396E-03         8.01702
            3716         84.3763         83.4024     351.856E-03         8.01305
            3717         84.4192         83.8732         1.20569         7.99082
            3718         84.4276         84.3424         2.13082         7.94866
            3719         84.3998         84.8090         3.13113         7.88482
            3720         84.3344         85.2715         4.21072         7.79739
            3721         84.2300         85.7285         5.37390         7.68431
            3722         84.0855         86.1784         6.62523         7.54340
            3723         83.9001         86.6197         7.96949         7.37228
            3724         83.6733         87.0504         9.41177         7.16842
            3725         83.4052         87.4686         10.9574         6.92910
            3726         83.0966         87.8721         12.6121         6.65140
            3727         82.7489         88.2586         14.3819         6.33219
            3728         82.3646         88.6254         16.2731         5.96813
            3729         81.9473         88.9699         18.2925         5.55566
            3730         81.5023         89.2889         20.4474         5.09098
            3731         81.0366         89.5791         22.7453         4.57007
            3732         80.5592         89.8370         25.1944         3.98864
            3733         80.0822         90.0586         27.8033         3.34219
            3734         79.6207         90.2397         30.5813         2.62596
            3735         79.1936         90.3756         33.5382         1.83498
            3736         78.8243         90.4614         36.6843     963.977E-03
            3737         78.5410         90.4913         40.0313     7.40375E-03
            3738         53.5934         59.8269         17.9480         3.85727
            3739         54.0239         60.1191         17.2761         3.84888
            3740         54.4646         60.4111         16.6044         3.84159
            3741         54.9147         60.7029         15.9334         3.83461
            3742         55.3735         60.9941         15.2634         3.82728
            3743         55.8401         61.2846         14.5951         3.81905
            3744         56.3137         61.5738         13.9289         3.80947
            3745         56.7932         61.8616         13.2657         3.79819
            3746         57.2779         62.1474         12.6062         3.78498
            3747         57.7665         62.4310         11.9512         3.76968
            3748         58.2581         62.7119         11.3015         3.75227
            3749         58.7518         62.9899         10.6580         3.73280
            3750         59.2465         63.2645         10.0214         3.71142
            3751         59.7414         63.5355         9.39256         3.68834
            3752         60.2355         63.8027         8.77221         3.66386
            3753         60.7282         64.0659         8.16103         3.63832
            3754         61.2185         64.3249         7.55969         3.61210
            3755         61.7060         64.5797         6.96874         3.58564
            3756         62.1901         64.8303         6.38871         3.55939
            3757         62.6702         65.0766         5.82004         3.53381
            3758         63.1461         65.3189         5.26311         3.50938
            3759         63.6173         65.5572         4.71824         3.48657
            3760         64.0838         65.7918         4.18568         3.46583
            3761         64.5453         66.0229         3.66562         3.44762
            3762         65.0019         66.2507         3.15820         3.43237
            3763         65.4535         66.4757         2.66351         3.42046
            3764         65.9002         66.6982         2.18161         3.41228
            3765         66.3421         66.9185         1.71249         3.40816
            3766         66.7795         67.1372         1.25614         3.40840
            3767         67.2125         67.3546     812.518E-03         3.41329
            3768         67.6415         67.5711     381.547E-03         3.42305
            3769         68.0667         67.7873    -36.8457E-03         3.43789
            3770         68.4884         68.0036    -442.748E-03         3.45797
            3771         68.9071         68.2205    -836.250E-03         3.48344
            3772         69.3230         68.4384        -1.21744         3.51439
            3773         69.7365         68.6580        -1.58638         3.55088
            3774         70.1479         68.8795        -1.94316         3.59296
            3775         70.5577         69.1035        -2.28782         3.64064
            3776         70.9660         69.3304        -2.62039         3.69389
            3777         71.3734         69.5608        -2.94086         3.75267
            3778         71.7801         69.7950        -3.24923         3.81691
            3779         72.1863         70.0335        -3.54542         3.88652
            3780         72.5924         70.2766        -3.82935         3.96137
            3781         72.9986         70.5249        -4.10089         4.04134
            3782         73.4050         70.7787        -4.35987         4.12625
            3783         73.8118         71.0383        -4.60607         4.21593
            3784         74.2191         71.3041        -4.83924         4.31019
            3785         74.6271         71.5764        -5.05906         4.40879
            3786         75.0356         71.8556        -5.26516         4.51152
            3787         75.4448         72.1420        -5.45714         4.61811
            3788         75.8544         72.4358        -5.63452         4.72829
            3789         76.2645         72.7372        -5.79676         4.84179
            3790         76.6747         73.0466        -5.94327         4.95828
            3791         77.0848         73.3640        -6.07339         5.07746
            3792         77.4946         73.6898        -6.18639         5.19897
            3793         77.9036         74.0239        -6.28148         5.32247
            3794         78.3113         74.3667        -6.35779         5.44757
            3795         78.7173         74.7181        -6.41438         5.57389
            3796         79.1210         75.0783        -6.45022         5.70099
            3797         79.5216         75.4472        -6.46423         5.82846
            3798         79.9185         75.8249        -6.45521         5.95583
            3799         80.3109         76.2114        -6.42191         6.08262
            3800         80.6978         76.6066        -6.36297         6.20832
            3801         81.0783         77.0104        -6.27695         6.33241
            3802         81.4513         77.4227        -6.16231         6.45432
            3803         81.8158         77.8433        -6.01742         6.57347
            3804         82.1705         78.2719        -5.84054         6.68925
            3805         82.5142         78.7085        -5.62983         6.80100
            3806         82.8455         79.1525        -5.38335         6.90803
            3807         83.1629         79.6038        -5.09906         7.00962
            3808         83.4651         80.0619        -4.77476         7.10500
            3809         83.7504         80.5263        -4.40819         7.19336
            3810         84.0171         80.9966        -3.99692         7.27384
            3811         84.2638         81.4721        -3.53842         7.34551
            3812         84.4885         81.9524        -3.03000         7.40740
            3813         84.6895         82.4367        -2.46887         7.45848
            3814         84.8651         82.9242        -1.85205         7.49764
            3815         85.0133         83.4142        -1.17643         7.52369
            3816         85.1323         83.9057    -438.740E-03         7.53538
            3817         85.2203         84.3977     364.471E-03         7.53134
            3818         85.2756         84.8892         1.23682         7.51012
            3819         85.2963         85.3791         2.18211         7.47017
            3820         85.2808         85.8660         3.20437         7.40983
            3821         85.2276         86.3487         4.30783         7.32728
            3822         85.1353         86.8255         5.49694         7.22062
            3823         85.0028         87.2949         6.77641         7.08776
            3824         84.8294         87.7551         8.15119         6.92651
            3825         84.6145         88.2043         9.62652         6.73446
            3826         84.3584         88.6402         11.2080         6.50907
            3827         84.0616         89.0607         12.9014         6.24761
            3828         83.7257         89.4633         14.7130         5.94715
            3829         83.3531         89.8453         16.6494         5.60458
            3830         82.9477         90.2038         18.7175         5.21657
            3831         82.5145         90.5357         20.9249         4.77959
            3832         82.0607         90.8375         23.2793         4.28988
            3833         81.5953         91.1055         25.7891         3.74349
            3834         81.1304         91.3356         28.4633         3.13622
            3835         80.6811         91.5235         31.3112         2.46366
            3836         80.2663         91.6644         34.3429         1.72122
            3837         79.9091         91.7533         37.5690     904.030E-03
            3838         79.6379         91.7843         41.0013     6.94104E-03
            3839         53.5596         59.8575         17.9572         3.56464
            3840         53.9919         60.1505         17.2837         3.55639
            3841         54.4341         60.4432         16.6113         3.54934
            3842         54.8854         60.7355         15.9402         3.54277
            3843         55.3454         61.0274         15.2707         3.53610
            3844         55.8132         61.3184         14.6033         3.52881
            3845         56.2879         61.6085         13.9386         3.52048
            3846         56.7689         61.8971         13.2770         3.51080
            3847         57.2550         62.1842         12.6194         3.49953
            3848         57.7455         62.4692         11.9663         3.48654
            3849         58.2393         62.7520         11.3185         3.47177
            3850         58.7356         63.0321         10.6768         3.45526
            3851         59.2335         63.3093         10.0419         3.43712
            3852         59.7320         63.5834         9.41455         3.41753
            3853         60.2304         63.8541         8.79535         3.39674
            3854         60.7279         64.1213         8.18499         3.37504
            3855         61.2238         64.3848         7.58407         3.35276
            3856         61.7174         64.6447         6.99314         3.33029
            3857         62.2083         64.9007         6.41269         3.30801
            3858         62.6959         65.1531         5.84315         3.28633
            3859         63.1798         65.4019         5.28492         3.26569
            3860         63.6598         65.6472         4.73829         3.24649
            3861         64.1356         65.8892         4.20355         3.22916
            3862         64.6070         66.1282         3.68089         3.21409
            3863         65.0740         66.3644         3.17047         3.20168
            3864         65.5365         66.5981         2.67242         3.19228
            3865         65.9946         66.8296         2.18681         3.18624
            3866         66.4484         67.0594         1.71368         3.18387
            3867         66.8980         67.2878         1.25303         3.18545
            3868         67.3436         67.5152     804.867E-03         3.19124
            3869         67.7854         67.7421     369.141E-03         3.20145
            3870         68.2238         67.9689    -54.1861E-03         3.21629
            3871         68.6589         68.1960    -465.171E-03         3.23590
            3872         69.0912         68.4240    -863.870E-03         3.26043
            3873         69.5208         68.6532        -1.25034         3.28996
            3874         69.9482         68.8843        -1.62462         3.32456
            3875         70.3736         69.1175        -1.98677         3.36429
            3876         70.7975         69.3534        -2.33678         3.40915
            3877         71.2201         69.5925        -2.67468         3.45913
            3878         71.6417         69.8351        -3.00043         3.51419
            3879         72.0626         70.0818        -3.31400         3.57428
            3880         72.4831         70.3330        -3.61529         3.63931
            3881         72.9035         70.5890        -3.90421         3.70918
            3882         73.3238         70.8503        -4.18059         3.78376
            3883         73.7444         71.1172        -4.44424         3.86291
            3884         74.1654         71.3902        -4.69494         3.94646
            3885         74.5868         71.6696        -4.93240         4.03425
            3886         75.0087         71.9557        -5.15630         4.12605
            3887         75.4312         72.2489        -5.36626         4.22167
            3888         75.8542         72.5494        -5.56183         4.32087
            3889         76.2776         72.8575        -5.74254         4.42341
            3890         76.7014         73.1735        -5.90782         4.52900
            3891         77.1251         73.4976        -6.05707         4.63738
            3892         77.5488         73.8301        -6.18961         4.74825
            3893         77.9719         74.1710        -6.30470         4.86128
            3894         78.3941         74.5206        -6.40153         4.97616
            3895         78.8150         74.8790        -6.47919         5.09253
            3896         79.2340         75.2463        -6.53675         5.21002
            3897         79.6507         75.6226        -6.57315         5.32825
            3898         80.0641         76.0078        -6.58729         5.44681
            3899         80.4738         76.4021        -6.57795         5.56529
            3900         80.8788         76.8053        -6.54385         5.68322
            3901         81.2783         77.2175        -6.48361         5.80015
            3902         81.6712         77.6385        -6.39577         5.91557
            3903         82.0566         78.0682        -6.27875         6.02897
            3904         82.4334         78.5065        -6.13090         6.13981
            3905         82.8003         78.9530        -5.95045         6.24750
            3906         83.1561         79.4076        -5.73553         6.35145
            3907         83.4994         79.8700        -5.48416         6.45101
            3908         83.8289         80.3397        -5.19424         6.54550
            3909         84.1430         80.8164        -4.86356         6.63420
            3910         84.4401         81.2996        -4.48980         6.71636
            3911         84.7188         81.7889        -4.07047         6.79118
            3912         84.9772         82.2835        -3.60300         6.85778
            3913         85.2136         82.7830        -3.08465         6.91527
            3914         85.4263         83.2865        -2.51254         6.96268
            3915         85.6135         83.7934        -1.88363         6.99896
            3916         85.7733         84.3027        -1.19474         7.02301
            3917         85.9039         84.8136    -442.519E-03         7.03364
            3918         86.0035         85.3249     376.584E-03         7.02959
            3919         86.0702         85.8357         1.26628         7.00950
            3920         86.1023         86.3447         2.23048         6.97192
            3921         86.0982         86.8505         3.27332         6.91528
            3922         86.0563         87.3519         4.39916         6.83791
            3923         85.9753         87.8470         5.61257         6.73800
            3924         85.8541         88.3344         6.91842         6.61363
            3925         85.6918         88.8122         8.32180         6.46273
            3926         85.4881         89.2784         9.82812         6.28309
            3927         85.2430         89.7307         11.4431         6.07231
            3928         84.9573         90.1669         13.1728         5.82787
            3929         84.6324         90.5844         15.0235         5.54706
            3930         84.2710         90.9804         17.0022         5.22696
            3931         83.8767         91.3519         19.1159         4.86452
            3932         83.4547         91.6956         21.3724         4.45645
            3933         83.0122         92.0080         23.7796         3.99929
            3934         82.5583         92.2853         26.3461         3.48938
            3935         82.1049         92.5233         29.0811         2.92285
            3936         81.6673         92.7175         31.9942         2.29565
            3937         81.2642         92.8630         35.0955         1.60354
            3938         80.9189         92.9547         38.3961     842.027E-03
            3939         80.6593         92.9867         41.9078     6.41114E-03
            3940         53.5299         59.8875         17.9661         3.27118
            3941         53.9639         60.1812         17.2911         3.26319
            3942         54.4076         60.4746         16.6178         3.25646
            3943         54.8603         60.7676         15.9464         3.25034
            3944         55.3215         61.0600         15.2773         3.24429
            3945         55.7904         61.3518         14.6106         3.23786
            3946         56.2664         61.6426         13.9469         3.23065
            3947         56.7486         61.9322         13.2867         3.22237
            3948         57.2363         62.2203         12.6305         3.21281
            3949         57.7285         62.5068         11.9791         3.20182
            3950         58.2244         62.7912         11.3329         3.18935
            3951         58.7231         63.0733         10.6928         3.17543
            3952         59.2238         63.3529         10.0593         3.16012
            3953         59.7256         63.6298         9.43318         3.14358
            3954         60.2279         63.9037         8.81496         3.12602
            3955         60.7298         64.1746         8.20529         3.10769
            3956         61.2306         64.4422         7.60473         3.08887
            3957         61.7298         64.7066         7.01379         3.06990
            3958         62.2268         64.9677         6.43296         3.05111
            3959         62.7212         65.2256         5.86265         3.03287
            3960         63.2124         65.4803         5.30324         3.01555
            3961         63.7003         65.7319         4.75505         2.99952
            3962         64.1845         65.9807         4.21835         2.98516
            3963         64.6649         66.2269         3.69336         2.97283
            3964         65.1414         66.4706         3.18026         2.96286
            3965         65.6139         66.7123         2.67918         2.95560
            3966         66.0823         66.9521         2.19023         2.95136
            3967         66.5469         67.1905         1.71348         2.95041
            3968         67.0076         67.4278         1.24895         2.95301
            3969         67.4646         67.6644     796.677E-03         2.95942
            3970         67.9183         67.9008     356.641E-03         2.96982
            3971         68.3686         68.1373    -71.1660E-03         2.98439
            3972         68.8160         68.3745    -486.771E-03         3.00330
            3973         69.2607         68.6127    -890.203E-03         3.02665
            3974         69.7030         68.8523        -1.28149         3.05456
            3975         70.1432         69.0940        -1.66064         3.08707
            3976         70.5816         69.3381        -2.02768         3.12425
            3977         71.0184         69.5850        -2.38260         3.16610
            3978         71.4540         69.8352        -2.72538         3.21263
            3979         71.8887         70.0893        -3.05598         3.26379
            3980         72.3228         70.3475        -3.37432         3.31955
            3981         72.7564         70.6103        -3.68029         3.37982
            3982         73.1899         70.8782        -3.97378         3.44453
            3983         73.6234         71.1516        -4.25461         3.51355
            3984         74.0571         71.4307        -4.52257         3.58676
            3985         74.4911         71.7161        -4.77742         3.66401
            3986         74.9255         72.0081        -5.01884         3.74514
            3987         75.3604         72.3070        -5.24650         3.82996
            3988         75.7957         72.6130        -5.46000         3.91829
            3989         76.2315         72.9267        -5.65890         4.00991
            3990         76.6676         73.2481        -5.84267         4.10459
            3991         77.1040         73.5776        -6.01077         4.20209
            3992         77.5403         73.9154        -6.16255         4.30215
            3993         77.9763         74.2617        -6.29733         4.40450
            3994         78.4118         74.6167        -6.41435         4.50885
            3995         78.8462         74.9806        -6.51278         4.61490
            3996         79.2793         75.3534        -6.59171         4.72232
            3997         79.7103         75.7354        -6.65016         4.83077
            3998         80.1389         76.1265        -6.68708         4.93991
            3999         80.5642         76.5269        -6.70133         5.04935
            4000         80.9856         76.9365        -6.69170         5.15871
            4001         81.4023         77.3553        -6.65686         5.26757
            4002         81.8133         77.7832        -6.59542         5.37550
            4003         82.2178         78.2201        -6.50588         5.48205
            4004         82.6146         78.6659        -6.38667         5.58673
            4005         83.0027         79.1205        -6.23608         5.68905
            4006         83.3808         79.5836        -6.05232         5.78846
            4007         83.7478         80.0549        -5.83349         5.88441
            4008         84.1022         80.5341        -5.57757         5.97631
            4009         84.4428         81.0209        -5.28244         6.06352
            4010         84.7678         81.5148        -4.94584         6.14538
            4011         85.0760         82.0154        -4.56539         6.22120
            4012         85.3655         82.5222        -4.13859         6.29022
            4013         85.6347         83.0345        -3.66279         6.35165
            4014         85.8820         83.5516        -3.13520         6.40465
            4015         86.1055         84.0730        -2.55289         6.44830
            4016         86.3034         84.5977        -1.91275         6.48166
            4017         86.4739         85.1249        -1.21152         6.50369
            4018         86.6152         85.6536    -445.776E-03         6.51330
            4019         86.7254         86.1828     388.110E-03         6.50931
            4020         86.8027         86.7113         1.29394         6.49046
            4021         86.8453         87.2379         2.27574         6.45539
            4022         86.8517         87.7611         3.33773         6.40267
            4023         86.8203         88.2797         4.48439         6.33073
            4024         86.7497         88.7918         5.72043         6.23791
            4025         86.6388         89.2957         7.05082         6.12243
            4026         86.4869         89.7896         8.48080         5.98236
            4027         86.2935         90.2714         10.0159         5.81567
            4028         86.0587         90.7388         11.6621         5.62015
            4029         85.7832         91.1894         13.4255         5.39346
            4030         85.4687         91.6206         15.3126         5.13310
            4031         85.1176         92.0294         17.3305         4.83641
            4032         84.7337         92.4128         19.4866         4.50055
            4033         84.3223         92.7674         21.7885         4.12252
            4034         83.8904         93.0896         24.2447         3.69914
            4035         83.4472         93.3753         26.8638         3.22705
            4036         83.0049         93.6205         29.6551         2.70271
            4037         82.5783         93.8204         32.6285         2.12241
            4038         82.1865         93.9702         35.7944         1.48228
            4039         81.8524         94.0644         39.1638     778.206E-03
            4040         81.6040         94.0973         42.7488     5.90533E-03
            4041         53.5039         59.9164         17.9747         2.97689
            4042         53.9397         60.2109         17.2981         2.96928
            4043         54.3848         60.5049         16.6239         2.96294
            4044         54.8389         60.7985         15.9522         2.95729
            4045         55.3012         61.0916         15.2831         2.95185
            4046         55.7714         61.3840         14.6169         2.94620
            4047         56.2485         61.6755         13.9540         2.93999
            4048         56.7320         61.9660         13.2949         2.93295
            4049         57.2211         62.2553         12.6400         2.92487
            4050         57.7149         62.5430         11.9898         2.91563
            4051         58.2126         62.8290         11.3451         2.90517
            4052         58.7136         63.1130         10.7062         2.89349
            4053         59.2169         63.3947         10.0740         2.88065
            4054         59.7217         63.6741         9.44886         2.86678
            4055         60.2274         63.9510         8.83148         2.85204
            4056         60.7333         64.2251         8.22239         2.83665
            4057         61.2386         64.4965         7.62212         2.82086
            4058         61.7428         64.7650         7.03117         2.80495
            4059         62.2453         65.0306         6.44998         2.78922
            4060         62.7457         65.2934         5.87898         2.77398
            4061         63.2435         65.5535         5.31853         2.75956
            4062         63.7385         65.8109         4.76894         2.74629
            4063         64.2303         66.0658         4.23049         2.73451
            4064         64.7188         66.3185         3.70342         2.72452
            4065         65.2038         66.5691         3.18792         2.71665
            4066         65.6852         66.8179         2.68414         2.71118
            4067         66.1630         67.0653         2.19221         2.70840
            4068         66.6373         67.3115         1.71220         2.70856
            4069         67.1081         67.5570         1.24419         2.71191
            4070         67.5756         67.8020     788.218E-03         2.71865
            4071         68.0399         68.0470     344.301E-03         2.72898
            4072         68.5012         68.2924    -87.5455E-03         2.74306
            4073         68.9597         68.5387    -507.322E-03         2.76103
            4074         69.4158         68.7862    -915.032E-03         2.78300
            4075         69.8696         69.0354        -1.31067         2.80908
            4076         70.3214         69.2868        -1.69424         2.83931
            4077         70.7715         69.5407        -2.06573         2.87375
            4078         71.2202         69.7978        -2.42511         2.91242
            4079         71.6678         70.0583        -2.77232         2.95531
            4080         72.1145         70.3227        -3.10732         3.00241
            4081         72.5605         70.5915        -3.43000         3.05366
            4082         73.0062         70.8651        -3.74025         3.10902
            4083         73.4517         71.1439        -4.03792         3.16840
            4084         73.8972         71.4283        -4.32281         3.23169
            4085         74.3429         71.7188        -4.59470         3.29880
            4086         74.7888         72.0155        -4.85332         3.36958
            4087         75.2351         72.3190        -5.09837         3.44388
            4088         75.6818         72.6296        -5.32947         3.52156
            4089         76.1290         72.9476        -5.54622         3.60242
            4090         76.5765         73.2732        -5.74815         3.68628
            4091         77.0242         73.6068        -5.93474         3.77293
            4092         77.4721         73.9487        -6.10541         3.86215
            4093         77.9199         74.2991        -6.25952         3.95371
            4094         78.3673         74.6581        -6.39635         4.04736
            4095         78.8141         75.0261        -6.51514         4.14283
            4096         79.2597         75.4031        -6.61503         4.23985
            4097         79.7039         75.7892        -6.69512         4.33812
            4098         80.1460         76.1847        -6.75440         4.43734
            4099         80.5854         76.5895        -6.79179         4.53718
            4100         81.0216         77.0037        -6.80616         4.63731
            4101         81.4538         77.4273        -6.79624         4.73735
            4102         81.8811         77.8603        -6.76073         4.83695
            4103         82.3027         78.3026        -6.69818         4.93569
            4104         82.7177         78.7542        -6.60710         5.03316
            4105         83.1249         79.2148        -6.48586         5.12894
            4106         83.5233         79.6844        -6.33275         5.22254
            4107         83.9118         80.1626        -6.14595         5.31349
            4108         84.2890         80.6492        -5.92352         5.40127
            4109         84.6536         81.1440        -5.66343         5.48533
            4110         85.0042         81.6464        -5.36350         5.56511
            4111         85.3394         82.1561        -5.02144         5.63999
            4112         85.6575         82.6726        -4.63485         5.70933
            4113         85.9570         83.1954        -4.20116         5.77243
            4114         86.2362         83.7238        -3.71769         5.82858
            4115         86.4933         84.2572        -3.18159         5.87700
            4116         86.7267         84.7949        -2.58987         5.91685
            4117         86.9344         85.3359        -1.93937         5.94725
            4118         87.1147         85.8795        -1.22677         5.96726
            4119         87.2657         86.4245    -448.555E-03         5.97587
            4120         87.3856         86.9700     398.967E-03         5.97200
            4121         87.4726         87.5148         1.31969         5.95448
            4122         87.5249         88.0574         2.31771         5.92209
            4123         87.5409         88.5967         3.39737         5.87348
            4124         87.5190         89.1309         4.56324         5.80722
            4125         87.4580         89.6584         5.82014         5.72181
            4126         87.3566         90.1775         7.17317         5.61558
            4127         87.2142         90.6861         8.62769         5.48679
            4128         87.0303         91.1822         10.1894         5.33356
            4129         86.8049         91.6633         11.8643         5.15388
            4130         86.5390         92.1271         13.6587         4.94562
            4131         86.2340         92.5707         15.5794         4.70648
            4132         85.8925         92.9912         17.6335         4.43403
            4133         85.5183         93.3854         19.8285         4.12570
            4134         85.1166         93.7499         22.1723         3.77874
            4135         84.6946         94.0809         24.6735         3.39027
            4136         84.2615         94.3744         27.3409         2.95723
            4137         83.8294         94.6260         30.1840         2.47640
            4138         83.4133         94.8311         33.2128         1.94442
            4139         83.0320         94.9847         36.4378         1.35776
            4140         82.7086         95.0814         39.8703     712.724E-03
            4141         82.4708         95.1150         43.5226     5.40237E-03
            4142         53.4813         59.9438         17.9829         2.68181
            4143         53.9187         60.2390         17.3048         2.67468
            4144         54.3653         60.5337         16.6296         2.66879
            4145         54.8206         60.8279         15.9574         2.66363
            4146         55.2842         61.1216         15.2882         2.65878
            4147         55.7555         61.4146         14.6224         2.65385
            4148         56.2338         61.7069         13.9601         2.64853
            4149         56.7185         61.9982         13.3018         2.64258
            4150         57.2088         62.2885         12.6479         2.63580
            4151         57.7041         62.5774         11.9988         2.62809
            4152         58.2036         62.8648         11.3552         2.61937
            4153         58.7066         63.1504         10.7175         2.60964
            4154         59.2122         63.4342         10.0862         2.59895
            4155         59.7197         63.7159         9.46197         2.58740
            4156         60.2285         63.9953         8.84529         2.57512
            4157         60.7379         64.2724         8.23668         2.56230
            4158         61.2472         64.5471         7.63666         2.54915
            4159         61.7558         64.8193         7.04567         2.53591
            4160         62.2632         65.0890         6.46417         2.52283
            4161         62.7690         65.3562         5.89255         2.51021
            4162         63.2727         65.6211         5.33116         2.49831
            4163         63.7740         65.8837         4.78034         2.48743
            4164         64.2726         66.1441         4.24034         2.47785
            4165         64.7683         66.4026         3.71143         2.46987
            4166         65.2609         66.6594         3.19380         2.46375
            4167         65.7504         66.9147         2.68762         2.45976
            4168         66.2366         67.1689         2.19303         2.45814
            4169         66.7196         67.4221         1.71013         2.45914
            4170         67.1995         67.6749         1.23902         2.46295
            4171         67.6763         67.9275     779.747E-03         2.46978
            4172         68.1502         68.1803     332.363E-03         2.47980
            4173         68.6214         68.4338    -103.098E-03         2.49316
            4174         69.0900         68.6883    -526.612E-03         2.50998
            4175         69.5563         68.9442    -938.157E-03         2.53037
            4176         70.0205         69.2021        -1.33771         2.55442
            4177         70.4828         69.4623        -1.72525         2.58218
            4178         70.9436         69.7252        -2.10073         2.61372
            4179         71.4030         69.9914        -2.46411         2.64903
            4180         71.8613         70.2612        -2.81533         2.68813
            4181         72.3189         70.5351        -3.15430         2.73100
            4182         72.7758         70.8136        -3.48090         2.77760
            4183         73.2324         71.0969        -3.79501         2.82788
            4184         73.6888         71.3857        -4.09644         2.88178
            4185         74.1452         71.6801        -4.38500         2.93920
            4186         74.6017         71.9807        -4.66045         3.00004
            4187         75.0585         72.2879        -4.92250         3.06420
            4188         75.5156         72.6019        -5.17082         3.13153
            4189         75.9730         72.9231        -5.40504         3.20189
            4190         76.4308         73.2519        -5.62474         3.27513
            4191         76.8890         73.5885        -5.82942         3.35107
            4192         77.3473         73.9332        -6.01857         3.42952
            4193         77.8056         74.2864        -6.19157         3.51030
            4194         78.2638         74.6482        -6.34779         3.59319
            4195         78.7216         75.0188        -6.48648         3.67796
            4196         79.1786         75.3985        -6.60688         3.76438
            4197         79.6344         75.7874        -6.70811         3.85220
            4198         80.0886         76.1856        -6.78925         3.94115
            4199         80.5407         76.5933        -6.84927         4.03095
            4200         80.9901         77.0106        -6.88710         4.12132
            4201         81.4361         77.4374        -6.90157         4.21195
            4202         81.8780         77.8737        -6.89141         4.30250
            4203         82.3150         78.3197        -6.85527         4.39264
            4204         82.7462         78.7751        -6.79172         4.48202
            4205         83.1707         79.2400        -6.69922         4.57025
            4206         83.5874         79.7141        -6.57614         4.65693
            4207         83.9952         80.1972        -6.42074         4.74165
            4208         84.3930         80.6892        -6.23117         4.82397
            4209         84.7794         81.1897        -6.00547         4.90342
            4210         85.1533         81.6985        -5.74156         4.97951
            4211         85.5130         82.2152        -5.43726         5.05170
            4212         85.8573         82.7392        -5.09024         5.11947
            4213         86.1845         83.2702        -4.69804         5.18220
            4214         86.4930         83.8075        -4.25807         5.23929
            4215         86.7812         84.3506        -3.76760         5.29007
            4216         87.0473         84.8988        -3.22373         5.33383
            4217         87.2896         85.4512        -2.62343         5.36983
            4218         87.5062         86.0071        -1.96348         5.39725
            4219         87.6954         86.5655        -1.24049         5.41524
            4220         87.8552         87.1254    -450.900E-03         5.42287
            4221         87.9839         87.6856     409.073E-03         5.41918
            4222         88.0797         88.2451         1.34339         5.40310
            4223         88.1407         88.8023         2.35623         5.37351
            4224         88.1654         89.3560         3.45203         5.32920
            4225         88.1523         89.9044         4.63545         5.26887
            4226         88.0999         90.4459         5.91140         5.19114
            4227         88.0072         90.9787         7.28510         5.09451
            4228         87.8734         91.5006         8.76202         4.97740
            4229         87.6981         92.0096         10.3480         4.83812
            4230         87.4814         92.5031         12.0491         4.67483
            4231         87.2241         92.9787         13.8719         4.48560
            4232         86.9278         93.4336         15.8231         4.26838
            4233         86.5951         93.8646         17.9102         4.02095
            4234         86.2297         94.2686         20.1406         3.74100
            4235         85.8370         94.6420         22.5227         3.42606
            4236         85.4241         94.9809         25.0648         3.07352
            4237         85.0004         95.2814         27.7762         2.68063
            4238         84.5777         95.5389         30.6664         2.24450
            4239         84.1713         95.7487         33.7455         1.76211
            4240         83.7998         95.9058         37.0244         1.23029
            4241         83.4864         96.0045         40.5142     645.707E-03
            4242         83.2585         96.0389         44.2275     4.86079E-03
            4243         53.4619         59.9692         17.9905         2.38596
            4244         53.9008         60.2651         17.3109         2.37940
            4245         54.3487         60.5605         16.6348         2.37402
            4246         54.8053         60.8553         15.9621         2.36938
            4247         55.2700         61.1495         15.2928         2.36510
            4248         55.7423         61.4432         14.6271         2.36083
            4249         56.2217         61.7362         13.9653         2.35632
            4250         56.7075         62.0283         13.3076         2.35133
            4251         57.1991         62.3194         12.6545         2.34569
            4252         57.6958         62.6094         12.0063         2.33931
            4253         58.1968         62.8981         11.3636         2.33210
            4254         58.7016         63.1853         10.7268         2.32407
            4255         59.2093         63.4708         10.0964         2.31524
            4256         59.7192         63.7545         9.47285         2.30570
            4257         60.2308         64.0363         8.85675         2.29556
            4258         60.7432         64.3160         8.24854         2.28497
            4259         61.2560         64.5937         7.64871         2.27412
            4260         61.7686         64.8691         7.05769         2.26320
            4261         62.2803         65.1424         6.47589         2.25244
            4262         62.7909         65.4136         5.90372         2.24208
            4263         63.2998         65.6827         5.34151         2.23236
            4264         63.8066         65.9499         4.78960         2.22353
            4265         64.3112         66.2152         4.24825         2.21584
            4266         64.8133         66.4789         3.71772         2.20954
            4267         65.3127         66.7412         3.19821         2.20488
            4268         65.8092         67.0023         2.68992         2.20207
            4269         66.3029         67.2624         2.19299         2.20135
            4270         66.7937         67.5220         1.70754         2.20291
            4271         67.2816         67.7813         1.23369         2.20695
            4272         67.7667         68.0406     771.500E-03         2.21363
            4273         68.2492         68.3005     321.048E-03         2.22312
            4274         68.7291         68.5611    -117.613E-03         2.23554
            4275         69.2067         68.8230    -544.438E-03         2.25101
            4276         69.6821         69.0865    -959.388E-03         2.26963
            4277         70.1556         69.3521        -1.36242         2.29148
            4278         70.6273         69.6202        -1.75348         2.31662
            4279         71.0976         69.8912        -2.13252         2.34507
            4280         71.5666         70.1656        -2.49947         2.37688
            4281         72.0346         70.4438        -2.85425         2.41204
            4282         72.5019         70.7262        -3.19676         2.45053
            4283         72.9685         71.0132        -3.52686         2.49233
            4284         73.4349         71.3054        -3.84441         2.53740
            4285         73.9010         71.6030        -4.14921         2.58568
            4286         74.3672         71.9065        -4.44106         2.63708
            4287         74.8334         72.2163        -4.71969         2.69153
            4288         75.2999         72.5327        -4.98480         2.74891
            4289         75.7667         72.8562        -5.23606         2.80913
            4290         76.2338         73.1870        -5.47308         2.87203
            4291         76.7012         73.5255        -5.69541         2.93750
            4292         77.1689         73.8719        -5.90256         3.00538
            4293         77.6366         74.2267        -6.09399         3.07549
            4294         78.1044         74.5900        -6.26910         3.14767
            4295         78.5719         74.9620        -6.42720         3.22174
            4296         79.0389         75.3431        -6.56757         3.29748
            4297         79.5051         75.7333        -6.68941         3.37469
            4298         79.9700         76.1329        -6.79184         3.45315
            4299         80.4333         76.5420        -6.87392         3.53262
            4300         80.8944         76.9607        -6.93462         3.61285
            4301         81.3526         77.3891        -6.97284         3.69358
            4302         81.8074         77.8273        -6.98739         3.77455
            4303         82.2581         78.2751        -6.97700         3.85545
            4304         82.7038         78.7327        -6.94031         3.93598
            4305         83.1435         79.1999        -6.87586         4.01582
            4306         83.5765         79.6767        -6.78209         4.09465
            4307         84.0017         80.1628        -6.65736         4.17209
            4308         84.4180         80.6582        -6.49989         4.24778
            4309         84.8241         81.1626        -6.30782         4.32132
            4310         85.2189         81.6756        -6.07917         4.39229
            4311         85.6009         82.1970        -5.81184         4.46026
            4312         85.9689         82.7264        -5.50360         4.52476
            4313         86.3214         83.2633        -5.15210         4.58528
            4314         86.6567         83.8073        -4.75486         4.64131
            4315         86.9733         84.3577        -4.30923         4.69229
            4316         87.2695         84.9139        -3.81245         4.73761
            4317         87.5437         85.4753        -3.26158         4.77666
            4318         87.7939         86.0410        -2.65354         4.80875
            4319         88.0185         86.6102        -1.98507         4.83317
            4320         88.2156         87.1818        -1.25272         4.84914
            4321         88.3834         87.7550    -452.855E-03         4.85583
            4322         88.5200         88.3286     418.350E-03         4.85238
            4323         88.6236         88.9012         1.36493         4.83783
            4324         88.6925         89.4715         2.39115         4.81118
            4325         88.7251         90.0380         3.50150         4.77134
            4326         88.7197         90.5992         4.70075         4.71714
            4327         88.6751         91.1533         5.99389         4.64736
            4328         88.5902         91.6983         7.38624         4.56065
            4329         88.4641         92.2321         8.88337         4.45560
            4330         88.2966         92.7526         10.4912         4.33068
            4331         88.0877         93.2572         12.2160         4.18427
            4332         87.8382         93.7434         14.0643         4.01465
            4333         87.5498         94.2083         16.0431         3.81996
            4334         87.2250         94.6487         18.1598         3.59825
            4335         86.8676         95.0614         20.4222         3.34746
            4336         86.4831         95.4427         22.8386         3.06538
            4337         86.0785         95.7888         25.4177         2.74969
            4338         85.6632         96.0955         28.1686         2.39795
            4339         85.2492         96.3582         31.1011         2.00760
            4340         84.8516         96.5722         34.2255         1.57595
            4341         84.4892         96.7323         37.5527         1.10018
            4342         84.1848         96.8330         41.0940     577.357E-03
            4343         83.9661         96.8680         44.8621     4.35220E-03
            4344         53.4452         59.9925         17.9974         2.08940
            4345         53.8856         60.2890         17.3165         2.08349
            4346         54.3348         60.5849         16.6395         2.07867
            4347         54.7925         60.8803         15.9662         2.07457
            4348         55.2582         61.1751         15.2967         2.07084
            4349         55.7315         61.4693         14.6311         2.06720
            4350         56.2119         61.7629         13.9696         2.06341
            4351         56.6988         62.0558         13.3124         2.05927
            4352         57.1914         62.3477         12.6599         2.05464
            4353         57.6894         62.6387         12.0125         2.04940
            4354         58.1918         62.9285         11.3705         2.04351
            4355         58.6982         63.2171         10.7344         2.03695
            4356         59.2077         63.5041         10.1047         2.02974
            4357         59.7197         63.7896         9.48179         2.02195
            4358         60.2337         64.0735         8.86617         2.01367
            4359         60.7489         64.3555         8.25829         2.00503
            4360         61.2647         64.6357         7.65860         1.99617
            4361         61.7807         64.9141         7.06753         1.98727
            4362         62.2962         65.1905         6.48548         1.97852
            4363         62.8109         65.4652         5.91282         1.97011
            4364         63.3243         65.7380         5.34990         1.96227
            4365         63.8361         66.0092         4.79703         1.95519
            4366         64.3459         66.2788         4.25451         1.94910
            4367         64.8535         66.5471         3.72257         1.94420
            4368         65.3588         66.8141         3.20144         1.94072
            4369         65.8616         67.0803         2.69131         1.93884
            4370         66.3618         67.3457         2.19234         1.93876
            4371         66.8594         67.6108         1.70467         1.94065
            4372         67.3544         67.8759         1.22842         1.94469
            4373         67.8468         68.1412     763.694E-03         1.95102
            4374         68.3368         68.4072     310.562E-03         1.95977
            4375         68.8244         68.6741    -130.897E-03         1.97107
            4376         69.3098         68.9425    -560.620E-03         1.98502
            4377         69.7933         69.2127    -978.550E-03         2.00170
            4378         70.2749         69.4851        -1.38462         2.02119
            4379         70.7550         69.7602        -1.77878         2.04353
            4380         71.2336         70.0383        -2.16094         2.06877
            4381         71.7111         70.3200        -2.53103         2.09692
            4382         72.1876         70.6056        -2.88894         2.12800
            4383         72.6634         70.8955        -3.23456         2.16198
            4384         73.1387         71.1902        -3.56775         2.19886
            4385         73.6136         71.4901        -3.88833         2.23858
            4386         74.0884         71.7956        -4.19610         2.28111
            4387         74.5632         72.1072        -4.49085         2.32637
            4388         75.0381         72.4251        -4.77228         2.37429
            4389         75.5131         72.7498        -5.04010         2.42479
            4390         75.9885         73.0816        -5.29395         2.47776
            4391         76.4641         73.4209        -5.53343         2.53308
            4392         76.9400         73.7679        -5.75809         2.59065
            4393         77.4160         74.1231        -5.96743         2.65033
            4394         77.8922         74.4867        -6.16088         2.71197
            4395         78.3683         74.8590        -6.33784         2.77543
            4396         78.8440         75.2401        -6.49761         2.84053
            4397         79.3192         75.6304        -6.63946         2.90711
            4398         79.7935         76.0300        -6.76258         2.97497
            4399         80.2665         76.4391        -6.86607         3.04393
            4400         80.7378         76.8578        -6.94898         3.11377
            4401         81.2068         77.2863        -7.01028         3.18429
            4402         81.6729         77.7246        -7.04885         3.25524
            4403         82.1355         78.1727        -7.06348         3.32640
            4404         82.5938         78.6308        -7.05289         3.39750
            4405         83.0472         79.0986        -7.01571         3.46828
            4406         83.4946         79.5763        -6.95046         3.53845
            4407         83.9351         80.0636        -6.85556         3.60773
            4408         84.3678         80.5604        -6.72936         3.67579
            4409         84.7915         81.0666        -6.57006         3.74231
            4410         85.2050         81.5819        -6.37578         3.80695
            4411         85.6071         82.1060        -6.14452         3.86932
            4412         85.9965         82.6386        -5.87415         3.92905
            4413         86.3717         83.1793        -5.56241         3.98573
            4414         86.7314         83.7276        -5.20694         4.03891
            4415         87.0739         84.2830        -4.80521         4.08814
            4416         87.3976         84.8450        -4.35455         4.13292
            4417         87.7010         85.4129        -3.85217         4.17273
            4418         87.9822         85.9859        -3.29509         4.20700
            4419         88.2395         86.5634        -2.68018         4.23516
            4420         88.4712         87.1443        -2.00413         4.25655
            4421         88.6753         87.7278        -1.26345         4.27050
            4422         88.8501         88.3127    -454.464E-03         4.27629
            4423         88.9936         88.8979     426.724E-03         4.27314
            4424         89.1042         89.4822         1.38421         4.26020
            4425         89.1801         90.0640         2.42231         4.23661
            4426         89.2195         90.6420         3.54561         4.20139
            4427         89.2211         91.2145         4.75892         4.15353
            4428         89.1833         91.7795         6.06735         4.09193
            4429         89.1053         92.3353         7.47627         4.01542
            4430         88.9861         92.8797         8.99135         3.92276
            4431         88.8255         93.4103         10.6186         3.81259
            4432         88.6235         93.9247         12.3644         3.68351
            4433         88.3809         94.4202         14.2354         3.53398
            4434         88.0995         94.8939         16.2386         3.36240
            4435         87.7818         95.3427         18.3817         3.16703
            4436         87.4316         95.7630         20.6725         2.94608
            4437         87.0543         96.1513         23.1194         2.69761
            4438         86.6572         96.5037         25.7311         2.41960
            4439         86.2495         96.8158         28.5171         2.10990
            4440         85.8432         97.0831         31.4871         1.76627
            4441         85.4536         97.3008         34.6517         1.38637
            4442         85.0992         97.4636         38.0216     967.730E-03
            4443         84.8032         97.5659         41.6085     507.782E-03
            4444         84.5928         97.6015         45.4252     3.81145E-03
            4445         53.4312         60.0132         18.0036         1.79219
            4446         53.8729         60.3103         17.3215         1.78700
            4447         54.3232         60.6068         16.6436         1.78279
            4448         54.7819         60.9026         15.9698         1.77924
            4449         55.2486         61.1979         15.3000         1.77606
            4450         55.7228         61.4927         14.6345         1.77300
            4451         56.2041         61.7868         13.9732         1.76987
            4452         56.6919         62.0803         13.3164         1.76649
            4453         57.1855         62.3730         12.6644         1.76273
            4454         57.6845         62.6649         12.0175         1.75851
            4455         58.1882         62.9557         11.3761         1.75376
            4456         58.6959         63.2454         10.7406         1.74848
            4457         59.2071         63.5338         10.1115         1.74268
            4458         59.7209         63.8209         9.48904         1.73642
            4459         60.2369         64.1065         8.87380         1.72975
            4460         60.7545         64.3905         8.26618         1.72280
            4461         61.2730         64.6730         7.66661         1.71568
            4462         61.7918         64.9538         7.07549         1.70854
            4463         62.3106         65.2330         6.49321         1.70152
            4464         62.8289         65.5105         5.92013         1.69481
            4465         63.3461         65.7866         5.35660         1.68857
            4466         63.8621         66.0612         4.80292         1.68299
            4467         64.3764         66.3345         4.25939         1.67824
            4468         64.8888         66.6067         3.72624         1.67450
            4469         65.3992         66.8780         3.20372         1.67196
            4470         65.9073         67.1485         2.69202         1.67078
            4471         66.4131         67.4185         2.19131         1.67112
            4472         66.9166         67.6884         1.70173         1.67314
            4473         67.4176         67.9584         1.22344         1.67697
            4474         67.9163         68.2289     756.523E-03         1.68276
            4475         68.4128         68.5002     301.090E-03         1.69060
            4476         68.9071         68.7726    -142.774E-03         1.70061
            4477         69.3994         69.0466    -574.991E-03         1.71287
            4478         69.8897         69.3226    -995.487E-03         1.72746
            4479         70.3784         69.6010        -1.40419         1.74444
            4480         70.8656         69.8821        -1.80101         1.76386
            4481         71.3515         70.1664        -2.18586         1.78574
            4482         71.8363         70.4543        -2.55866         1.81012
            4483         72.3203         70.7464        -2.91928         1.83699
            4484         72.8035         71.0428        -3.26759         1.86635
            4485         73.2862         71.3442        -3.60344         1.89818
            4486         73.7686         71.6508        -3.92664         1.93245
            4487         74.2509         71.9632        -4.23699         1.96911
            4488         74.7332         72.2817        -4.53424         2.00812
            4489         75.2155         72.6067        -4.81810         2.04941
            4490         75.6980         72.9385        -5.08826         2.09290
            4491         76.1808         73.2776        -5.34436         2.13851
            4492         76.6638         73.6243        -5.58598         2.18615
            4493         77.1471         73.9789        -5.81266         2.23570
            4494         77.6304         74.3416        -6.02389         2.28707
            4495         78.1139         74.7129        -6.21910         2.34012
            4496         78.5972         75.0930        -6.39767         2.39473
            4497         79.0801         75.4821        -6.55890         2.45076
            4498         79.5624         75.8804        -6.70203         2.50804
            4499         80.0437         76.2881        -6.82626         2.56644
            4500         80.5237         76.7055        -6.93067         2.62578
            4501         81.0019         77.1326        -7.01431         2.68587
            4502         81.4778         77.5695        -7.07613         2.74655
            4503         81.9507         78.0164        -7.11499         2.80760
            4504         82.4201         78.4733        -7.12969         2.86882
            4505         82.8851         78.9401        -7.11893         2.93000
            4506         83.3451         79.4169        -7.08132         2.99090
            4507         83.7991         79.9036        -7.01537         3.05128
            4508         84.2462         80.4001        -6.91950         3.11088
            4509         84.6854         80.9063        -6.79202         3.16944
            4510         85.1155         81.4219        -6.63113         3.22668
            4511         85.5354         81.9467        -6.43492         3.28229
            4512         85.9439         82.4804        -6.20138         3.33596
            4513         86.3396         83.0227        -5.92836         3.38735
            4514         86.7212         83.5732        -5.61358         3.43611
            4515         87.0871         84.1314        -5.25464         3.48186
            4516         87.4358         84.6968        -4.84900         3.52420
            4517         87.7658         85.2688        -4.39397         3.56271
            4518         88.0753         85.8468        -3.88671         3.59694
            4519         88.3627         86.4300        -3.32421         3.62640
            4520         88.6262         87.0177        -2.70330         3.65059
            4521         88.8639         87.6088        -2.02065         3.66894
            4522         89.0741         88.2025        -1.27271         3.68089
            4523         89.2550         88.7976    -455.768E-03         3.68579
            4524         89.4046         89.3930     434.128E-03         3.68298
            4525         89.5212         89.9873         1.40112         3.67175
            4526         89.6031         90.5792         2.44959         3.65131
            4527         89.6485         91.1671         3.58418         3.62086
            4528         89.6560         91.7493         4.80977         3.57950
            4529         89.6243         92.3239         6.13152         3.52630
            4530         89.5522         92.8891         7.55489         3.46025
            4531         89.4391         93.4425         9.08563         3.38027
            4532         89.2844         93.9819         10.7298         3.28520
            4533         89.0884         94.5048         12.4939         3.17383
            4534         88.8519         95.0084         14.3847         3.04484
            4535         88.5766         95.4897         16.4093         2.89684
            4536         88.2651         95.9456         18.5753         2.72837
            4537         87.9211         96.3726         20.8908         2.53787
            4538         87.5503         96.7670         23.3642         2.32367
            4539         87.1596         97.1247         26.0044         2.08404
            4540         86.7586         97.4415         28.8209         1.81715
            4541         86.3592         97.7128         31.8235         1.52108
            4542         85.9765         97.9337         35.0229         1.19381
            4543         85.6294         98.0988         38.4301     833.241E-03
            4544         85.3405         98.2026         42.0566     437.160E-03
            4545         85.1375         98.2386         45.9154     3.26101E-03
            4546         53.4197         60.0312         18.0089         1.49441
            4547         53.8625         60.3288         17.3258         1.48999
            4548         54.3138         60.6257         16.6471         1.48643
            4549         54.7734         60.9220         15.9728         1.48344
            4550         55.2409         61.2177         15.3029         1.48081
            4551         55.7159         61.5129         14.6372         1.47831
            4552         56.1980         61.8076         13.9761         1.47578
            4553         56.6865         62.1016         13.3195         1.47308
            4554         57.1811         62.3949         12.6679         1.47009
            4555         57.6810         62.6875         12.0215         1.46676
            4556         58.1857         62.9792         11.3806         1.46301
            4557         58.6946         63.2699         10.7456         1.45885
            4558         59.2071         63.5594         10.1168         1.45429
            4559         59.7225         63.8478         9.49481         1.44935
            4560         60.2402         64.1349         8.87989         1.44410
            4561         60.7597         64.4206         8.27248         1.43863
            4562         61.2804         64.7050         7.67299         1.43303
            4563         61.8018         64.9879         7.08182         1.42741
            4564         62.3232         65.2693         6.49934         1.42191
            4565         62.8445         65.5494         5.92591         1.41666
            4566         63.3650         65.8282         5.36186         1.41180
            4567         63.8844         66.1057         4.80750         1.40749
            4568         64.4025         66.3822         4.26312         1.40386
            4569         64.9190         66.6577         3.72897         1.40108
            4570         65.4336         66.9324         3.20528         1.39927
            4571         65.9462         67.2066         2.69226         1.39859
            4572         66.4568         67.4805         2.19009         1.39917
            4573         66.9651         67.7544         1.69892         1.40113
            4574         67.4713         68.0286         1.21891         1.40459
            4575         67.9753         68.3035     750.160E-03         1.40966
            4576         68.4773         68.5792     292.793E-03         1.41644
            4577         68.9772         68.8563    -153.092E-03         1.42501
            4578         69.4752         69.1351    -587.405E-03         1.43545
            4579         69.9714         69.4160        -1.01006         1.44781
            4580         70.4661         69.6993        -1.42097         1.46216
            4581         70.9594         69.9856        -1.82003         1.47853
            4582         71.4514         70.2752        -2.20716         1.49695
            4583         71.9424         70.5685        -2.58224         1.51744
            4584         72.4325         70.8659        -2.94514         1.54000
            4585         72.9221         71.1679        -3.29573         1.56463
            4586         73.4111         71.4749        -3.63382         1.59131
            4587         73.8999         71.7873        -3.95924         1.62002
            4588         74.3885         72.1055        -4.27176         1.65073
            4589         74.8770         72.4299        -4.57113         1.68338
            4590         75.3657         72.7609        -4.85705         1.71794
            4591         75.8546         73.0988        -5.12920         1.75433
            4592         76.3436         73.4441        -5.38720         1.79249
            4593         76.8329         73.7970        -5.63063         1.83234
            4594         77.3224         74.1579        -5.85902         1.87379
            4595         77.8120         74.5271        -6.07185         1.91674
            4596         78.3016         74.9050        -6.26855         1.96111
            4597         78.7910         75.2917        -6.44848         2.00677
            4598         79.2800         75.6874        -6.61094         2.05361
            4599         79.7683         76.0926        -6.75517         2.10151
            4600         80.2556         76.5072        -6.88033         2.15033
            4601         80.7415         76.9316        -6.98553         2.19994
            4602         81.2256         77.3658        -7.06978         2.25018
            4603         81.7073         77.8099        -7.13204         2.30091
            4604         82.1860         78.2641        -7.17116         2.35195
            4605         82.6611         78.7284        -7.18592         2.40313
            4606         83.1319         79.2027        -7.17501         2.45427
            4607         83.5975         79.6871        -7.13703         2.50519
            4608         84.0571         80.1815        -7.07049         2.55567
            4609         84.5097         80.6858        -6.97379         2.60550
            4610         84.9544         81.1999        -6.84522         2.65446
            4611         85.3900         81.7234        -6.68298         2.70231
            4612         85.8153         82.2563        -6.48514         2.74880
            4613         86.2292         82.7982        -6.24966         2.79366
            4614         86.6302         83.3487        -5.97439         2.83662
            4615         87.0171         83.9075        -5.65702         2.87738
            4616         87.3883         84.4741        -5.29515         2.91562
            4617         87.7423         85.0480        -4.88618         2.95101
            4618         88.0776         85.6285        -4.42743         2.98320
            4619         88.3923         86.2151        -3.91601         3.01180
            4620         88.6849         86.8069        -3.34890         3.03640
            4621         88.9536         87.4031        -2.72290         3.05659
            4622         89.1965         88.0029        -2.03463         3.07190
            4623         89.4119         88.6053        -1.28052         3.08184
            4624         89.5979         89.2090    -456.803E-03         3.08589
            4625         89.7526         89.8130     440.502E-03         3.08347
            4626         89.8744         90.4159         1.41558         3.07400
            4627         89.9613         91.0163         2.47288         3.05682
            4628         90.0119         91.6125         3.61707         3.03126
            4629         90.0245         92.2030         4.85310         2.99656
            4630         89.9978         92.7857         6.18619         2.95194
            4631         89.9308         93.3588         7.62186         2.89656
            4632         89.8227         93.9199         9.16591         2.82951
            4633         89.6732         94.4668         10.8245         2.74983
            4634         89.4823         94.9968         12.6042         2.65651
            4635         89.2510         95.5073         14.5117         2.54843
            4636         88.9808         95.9951         16.5545         2.42446
            4637         88.6745         96.4570         18.7400         2.28335
            4638         88.3360         96.8896         21.0765         2.12380
            4639         87.9706         97.2890         23.5724         1.94444
            4640         87.5855         97.6513         26.2368         1.74381
            4641         87.1902         97.9721         29.0792         1.52040
            4642         86.7966         98.2468         32.1095         1.27259
            4643         86.4200         98.4703         35.3385     998.709E-03
            4644         86.0789         98.6374         38.7772     697.015E-03
            4645         85.7964         98.7424         42.4374     365.676E-03
            4646         85.5996         98.7788         46.3318     2.74729E-03
            4647         53.4105         60.0462         18.0134         1.19614
            4648         53.8542         60.3442         17.3293         1.19254
            4649         54.3063         60.6415         16.6500         1.18966
            4650         54.7667         60.9382         15.9753         1.18725
            4651         55.2349         61.2343         15.3051         1.18515
            4652         55.7106         61.5298         14.6394         1.18318
            4653         56.1933         61.8249         13.9784         1.18121
            4654         56.6825         62.1194         13.3220         1.17912
            4655         57.1777         62.4132         12.6707         1.17683
            4656         57.6784         62.7064         12.0246         1.17428
            4657         58.1840         62.9988         11.3841         1.17142
            4658         58.6939         63.2903         10.7494         1.16825
            4659         59.2074         63.5808         10.1210         1.16477
            4660         59.7241         63.8703         9.49930         1.16101
            4661         60.2433         64.1586         8.88461         1.15701
            4662         60.7644         64.4457         8.27736         1.15284
            4663         61.2868         64.7315         7.67793         1.14857
            4664         61.8102         65.0161         7.08671         1.14430
            4665         62.3339         65.2995         6.50407         1.14012
            4666         62.8575         65.5816         5.93035         1.13615
            4667         63.3807         65.8626         5.36588         1.13248
            4668         63.9030         66.1425         4.81097         1.12925
            4669         64.4241         66.4214         4.26591         1.12657
            4670         64.9438         66.6996         3.73094         1.12455
            4671         65.4619         66.9772         3.20631         1.12332
            4672         65.9782         67.2544         2.69222         1.12297
            4673         66.4926         67.5315         2.18886         1.12363
            4674         67.0050         67.8087         1.69640         1.12538
            4675         67.5154         68.0864         1.21498         1.12833
            4676         68.0237         68.3647     744.750E-03         1.13255
            4677         68.5301         68.6442     285.812E-03         1.13813
            4678         69.0346         68.9251    -161.717E-03         1.14514
            4679         69.5373         69.2078    -597.737E-03         1.15363
            4680         70.0383         69.4926        -1.02215         1.16366
            4681         70.5379         69.7801        -1.43486         1.17527
            4682         71.0361         70.0706        -1.83575         1.18849
            4683         71.5331         70.3644        -2.22473         1.20334
            4684         72.0292         70.6621        -2.60167         1.21985
            4685         72.5245         70.9640        -2.96644         1.23801
            4686         73.0191         71.2706        -3.31888         1.25782
            4687         73.5133         71.5822        -3.65881         1.27927
            4688         74.0072         71.8992        -3.98604         1.30234
            4689         74.5010         72.2222        -4.30034         1.32700
            4690         74.9948         72.5515        -4.60144         1.35323
            4691         75.4887         72.8874        -4.88904         1.38097
            4692         75.9827         73.2303        -5.16281         1.41018
            4693         76.4769         73.5806        -5.42237         1.44081
            4694         76.9713         73.9387        -5.66728         1.47278
            4695         77.4659         74.3048        -5.89707         1.50604
            4696         77.9606         74.6793        -6.11122         1.54051
            4697         78.4552         75.0625        -6.30914         1.57610
            4698         78.9496         75.4546        -6.49018         1.61273
            4699         79.4436         75.8559        -6.65365         1.65030
            4700         79.9369         76.2667        -6.79877         1.68873
            4701         80.4291         76.6870        -6.92471         1.72789
            4702         80.9199         77.1171        -7.03055         1.76768
            4703         81.4087         77.5571        -7.11530         1.80798
            4704         81.8952         78.0072        -7.17792         1.84867
            4705         82.3786         78.4673        -7.21724         1.88961
            4706         82.8584         78.9377        -7.23205         1.93066
            4707         83.3338         79.4182        -7.22103         1.97168
            4708         83.8041         79.9088        -7.18275         2.01252
            4709         84.2682         80.4095        -7.11573         2.05301
            4710         84.7254         80.9202        -7.01834         2.09298
            4711         85.1746         81.4407        -6.88888         2.13225
            4712         85.6147         81.9708        -6.72552         2.17063
            4713         86.0445         82.5103        -6.52634         2.20792
            4714         86.4628         83.0588        -6.28928         2.24390
            4715         86.8682         83.6161        -6.01216         2.27836
            4716         87.2595         84.1817        -5.69267         2.31105
            4717         87.6350         84.7552        -5.32837         2.34172
            4718         87.9934         85.3360        -4.91668         2.37010
            4719         88.3329         85.9235        -4.45487         2.39591
            4720         88.6519         86.5171        -3.94004         2.41883
            4721         88.9488         87.1160        -3.36914         2.43856
            4722         89.2217         87.7193        -2.73895         2.45473
            4723         89.4689         88.3262        -2.04607         2.46699
            4724         89.6885         88.9356        -1.28688         2.47493
            4725         89.8787         89.5464    -457.602E-03         2.47814
            4726         90.0376         90.1575     445.791E-03         2.47616
            4727         90.1636         90.7674         1.42752         2.46850
            4728         90.2547         91.3747         2.49207         2.45467
            4729         90.3094         91.9778         3.64416         2.43409
            4730         90.3262         92.5750         4.88877         2.40617
            4731         90.3037         93.1644         6.23117         2.37029
            4732         90.2409         93.7439         7.67695         2.32576
            4733         90.1369         94.3113         9.23195         2.27186
            4734         89.9915         94.8643         10.9024         2.20783
            4735         89.8049         95.4002         12.6948         2.13283
            4736         89.5778         95.9162         14.6162         2.04599
            4737         89.3119         96.4093         16.6738         1.94638
            4738         89.0100         96.8761         18.8754         1.83302
            4739         88.6758         97.3133         21.2291         1.70487
            4740         88.3149         97.7169         23.7435         1.56081
            4741         87.9344         98.0829         26.4277         1.39970
            4742         87.5438         98.4070         29.2913         1.22031
            4743         87.1551         98.6844         32.3444         1.02135
            4744         86.7834         98.9101         35.5977     801.495E-03
            4745         86.4475         99.0788         39.0623     559.338E-03
            4746         86.1701         99.1847         42.7499     293.412E-03
            4747         85.9786         99.2216         46.6737     2.18344E-03
            4748         53.4034         60.0580         18.0169     897.462E-03
            4749         53.8479         60.3564         17.3322     894.733E-03
            4750         54.3007         60.6540         16.6523     892.545E-03
            4751         54.7617         60.9509         15.9773     890.734E-03
            4752         55.2304         61.2473         15.3069     889.160E-03
            4753         55.7066         61.5432         14.6411     887.700E-03
            4754         56.1898         61.8386         13.9801     886.252E-03
            4755         56.6796         62.1334         13.3239     884.730E-03
            4756         57.1754         62.4277         12.6728     883.070E-03
            4757         57.6767         62.7213         12.0269     881.224E-03
            4758         58.1829         63.0143         11.3866     879.162E-03
            4759         58.6935         63.3064         10.7523     876.873E-03
            4760         59.2080         63.5977         10.1241     874.361E-03
            4761         59.7256         63.8879         9.50264     871.646E-03
            4762         60.2458         64.1772         8.88813     868.761E-03
            4763         60.7682         64.4654         8.28099     865.753E-03
            4764         61.2920         64.7524         7.68161     862.679E-03
            4765         61.8169         65.0384         7.09035     859.603E-03
            4766         62.3423         65.3232         6.50758     856.601E-03
            4767         62.8679         65.6068         5.93363     853.750E-03
            4768         63.3930         65.8895         5.36884     851.135E-03
            4769         63.9176         66.1713         4.81350     848.841E-03
            4770         64.4411         66.4522         4.26791     846.957E-03
            4771         64.9633         66.7325         3.73231     845.568E-03
            4772         65.4841         67.0123         3.20695     844.761E-03
            4773         66.0033         67.2918         2.69203     844.619E-03
            4774         66.5206         67.5714         2.18776     845.222E-03
            4775         67.0361         67.8511         1.69429     846.644E-03
            4776         67.5497         68.1314         1.21180     848.955E-03
            4777         68.0614         68.4126     740.415E-03     852.222E-03
            4778         68.5712         68.6949     280.261E-03     856.501E-03
            4779         69.0793         68.9787    -168.541E-03     861.845E-03
            4780         69.5856         69.2644    -605.882E-03     868.299E-03
            4781         70.0904         69.5524        -1.03166     875.902E-03
            4782         70.5937         69.8431        -1.44576     884.685E-03
            4783         71.0958         70.1368        -1.84808     894.673E-03
            4784         71.5967         70.4340        -2.23849     905.884E-03
            4785         72.0967         70.7351        -2.61688     918.329E-03
            4786         72.5960         71.0405        -2.98309     932.013E-03
            4787         73.0946         71.3506        -3.33697     946.933E-03
            4788         73.5928         71.6658        -3.67833     963.082E-03
            4789         74.0908         71.9865        -4.00697     980.446E-03
            4790         74.5886         72.3132        -4.32265     999.004E-03
            4791         75.0864         72.6462        -4.62509         1.01873
            4792         75.5843         72.9859        -4.91400         1.03959
            4793         76.0824         73.3328        -5.18903         1.06156
            4794         76.5806         73.6870        -5.44980         1.08459
            4795         77.0790         74.0491        -5.69586         1.10863
            4796         77.5776         74.4193        -5.92675         1.13363
            4797         78.0762         74.7979        -6.14192         1.15953
            4798         78.5747         75.1853        -6.34078         1.18629
            4799         79.0731         75.5817        -6.52270         1.21382
            4800         79.5709         75.9873        -6.68695         1.24206
            4801         80.0680         76.4023        -6.83277         1.27094
            4802         80.5641         76.8271        -6.95930         1.30037
            4803         81.0586         77.2617        -7.06564         1.33027
            4804         81.5512         77.7062        -7.15079         1.36056
            4805         82.0414         78.1609        -7.21369         1.39114
            4806         82.5286         78.6257        -7.25317         1.42191
            4807         83.0120         79.1008        -7.26802         1.45276
            4808         83.4910         79.5861        -7.25690         1.48359
            4809         83.9649         80.0815        -7.21839         1.51428
            4810         84.4326         80.5872        -7.15099         1.54471
            4811         84.8933         81.1028        -7.05307         1.57475
            4812         85.3460         81.6283        -6.92291         1.60426
            4813         85.7896         82.1635        -6.75869         1.63310
            4814         86.2228         82.7082        -6.55846         1.66113
            4815         86.6445         83.2620        -6.32016         1.68817
            4816         87.0534         83.8245        -6.04160         1.71406
            4817         87.4481         84.3954        -5.72045         1.73863
            4818         87.8270         84.9743        -5.35427         1.76167
            4819         88.1887         85.5605        -4.94045         1.78300
            4820         88.5316         86.1534        -4.47625         1.80239
            4821         88.8540         86.7525        -3.95876         1.81961
            4822         89.1542         87.3568        -3.38491         1.83442
            4823         89.4304         87.9657        -2.75145         1.84657
            4824         89.6809         88.5781        -2.05496         1.85576
            4825         89.9037         89.1930        -1.29182         1.86171
            4826         90.0972         89.8094    -458.194E-03         1.86410
            4827         90.2594         90.4259     449.952E-03         1.86259
            4828         90.3886         91.0413         1.43688         1.85681
            4829         90.4830         91.6539         2.50708         1.84637
            4830         90.5410         92.2624         3.66533         1.83086
            4831         90.5610         92.8648         4.91664         1.80984
            4832         90.5417         93.4594         6.26632         1.78281
            4833         90.4822         94.0439         7.71998         1.74929
            4834         90.3815         94.6163         9.28352         1.70871
            4835         90.2393         95.1740         10.9632         1.66051
            4836         90.0559         95.7144         12.7656         1.60406
            4837         89.8322         96.2347         14.6978         1.53871
            4838         89.5696         96.7319         16.7670         1.46376
            4839         89.2711         97.2026         18.9811         1.37847
            4840         88.9404         97.6433         21.3482         1.28205
            4841         88.5829         98.0502         23.8770         1.17368
            4842         88.2061         98.4191         26.5767         1.05249
            4843         87.8192         98.7457         29.4569     917.556E-03
            4844         87.4342         99.0252         32.5277     767.928E-03
            4845         87.0665         99.2526         35.7999     602.596E-03
            4846         86.7345         99.4225         39.2846     420.512E-03
            4847         86.4612         99.5293         42.9938     220.572E-03
            4848         86.2738         99.5663         46.9403     1.63631E-03
            4849         53.3985         60.0665         18.0195     598.480E-03
            4850         53.8434         60.3652         17.3342     596.645E-03
            4851         54.2967         60.6630         16.6540     595.176E-03
            4852         54.7581         60.9602         15.9787     593.964E-03
            4853         55.2273         61.2568         15.3081     592.916E-03
            4854         55.7039         61.5528         14.6423     591.951E-03
            4855         56.1875         61.8485         13.9813     591.000E-03
            4856         56.6776         62.1436         13.3252     590.007E-03
            4857         57.1738         62.4381         12.6742     588.926E-03
            4858         57.6755         62.7321         12.0285     587.728E-03
            4859         58.1823         63.0255         11.3884     586.391E-03
            4860         58.6934         63.3180         10.7542     584.908E-03
            4861         59.2084         63.6098         10.1263     583.280E-03
            4862         59.7268         63.9007         9.50494     581.521E-03
            4863         60.2478         64.1906         8.89055     579.653E-03
            4864         60.7710         64.4796         8.28349     577.705E-03
            4865         61.2959         64.7675         7.68414     575.715E-03
            4866         61.8219         65.0543         7.09285     573.725E-03
            4867         62.3485         65.3402         6.50999     571.786E-03
            4868         62.8753          65.625         5.93588     569.947E-03
            4869         63.4020         65.9089         5.37086     568.266E-03
            4870         63.9281         66.1919         4.81522     566.799E-03
            4871         64.4533         66.4743         4.26925     565.603E-03
            4872         64.9773         66.7561         3.73320     564.736E-03
            4873         65.5000         67.0375         3.20732     564.255E-03
            4874         66.0212         67.3187         2.69182     564.216E-03
            4875         66.5406         67.5999         2.18689     564.671E-03
            4876         67.0583         67.8815         1.69272     565.671E-03
            4877         67.5742         68.1637         1.20946     567.261E-03
            4878         68.0883         68.4468     737.250E-03     569.485E-03
            4879         68.6006         68.7312     276.231E-03     572.383E-03
            4880         69.1112         69.0171    -173.477E-03     575.988E-03
            4881         69.6202         69.3050    -611.759E-03     580.331E-03
            4882         70.1276         69.5952        -1.03850     585.438E-03
            4883         70.6336         69.8882        -1.45360     591.330E-03
            4884         71.1384         70.1842        -1.85693     598.024E-03
            4885         71.6421         70.4838        -2.24837     605.531E-03
            4886         72.1450         70.7873        -2.62778     613.860E-03
            4887         72.6470         71.0952        -2.99503     623.013E-03
            4888         73.1485         71.4078        -3.34993     632.990E-03
            4889         73.6497         71.7256        -3.69232     643.786E-03
            4890         74.1505         72.0490        -4.02196     655.390E-03
            4891         74.6512         72.3783        -4.33862     667.790E-03
            4892         75.1519         72.7140        -4.64203     680.969E-03
            4893         75.6527         73.0565        -4.93187     694.906E-03
            4894         76.1536         73.4061        -5.20780     709.577E-03
            4895         76.6547         73.7632        -5.46943     724.955E-03
            4896         77.1560         74.1281        -5.71632     741.008E-03
            4897         77.6574         74.5012        -5.94798     757.703E-03
            4898         78.1588         74.8828        -6.16389     775.002E-03
            4899         78.6602         75.2731        -6.36343     792.865E-03
            4900         79.1613         75.6725        -6.54596     811.248E-03
            4901         79.6619         76.0812        -6.71078     830.104E-03
            4902         80.1618         76.4994        -6.85709     849.384E-03
            4903         80.6605         76.9273        -6.98406     869.035E-03
            4904         81.1578         77.3651        -7.09075     889.001E-03
            4905         81.6531         77.8129        -7.17618     909.223E-03
            4906         82.1459         78.2709        -7.23928     929.637E-03
            4907         82.6357         78.7390        -7.27888     950.179E-03
            4908         83.1217         79.2175        -7.29376     970.777E-03
            4909         83.6034         79.7062        -7.28257     991.360E-03
            4910         84.0798         80.2051        -7.24389         1.01185
            4911         84.5500         80.7143        -7.17622         1.03217
            4912         85.0133         81.2335        -7.07792         1.05222
            4913         85.4685         81.7626        -6.94727         1.07192
            4914         85.9145         82.3015        -6.78243         1.09118
            4915         86.3503         82.8498        -6.58145         1.10989
            4916         86.7745         83.4073        -6.34226         1.12794
            4917         87.1858         83.9736        -6.06266         1.14523
            4918         87.5828         84.5483        -5.74033         1.16163
            4919         87.9642         85.1310        -5.37280         1.17701
            4920         88.3283         85.7210        -4.95746         1.19125
            4921         88.6736         86.3179        -4.49155         1.20419
            4922         88.9984         86.9208        -3.97215         1.21569
            4923         89.3009         87.5291        -3.39619         1.22557
            4924         89.5795         88.1419        -2.76039         1.23367
            4925         89.8323         88.7583        -2.06132         1.23981
            4926         90.0576         89.3771        -1.29533         1.24377
            4927         90.2534         89.9974    -458.600E-03         1.24536
            4928         90.4179         90.6179     452.950E-03         1.24433
            4929         90.5495         91.2371         1.44359         1.24046
            4930         90.6462         91.8537         2.51785         1.23347
            4931         90.7065         92.4659         3.68051         1.22310
            4932         90.7288         93.0721         4.93662         1.20904
            4933         90.7119         93.6703         6.29151         1.19097
            4934         90.6546         94.2585         7.75082         1.16856
            4935         90.5562         94.8343         9.32047         1.14144
            4936         90.4164         95.3954         11.0068         1.10922
            4937         90.2354         95.9391         12.8163         1.07149
            4938         90.0140         96.4625         14.7562         1.02782
            4939         89.7539         96.9626         16.8337     977.731E-03
            4940         89.4577         97.4361         19.0568     920.737E-03
            4941         89.1295         97.8793         21.4335     856.314E-03
            4942         88.7746         98.2885         23.9727     783.911E-03
            4943         88.4003         98.6595         26.6834     702.947E-03
            4944         88.0160         98.9879         29.5755     612.811E-03
            4945         87.6339         99.2689         32.6589     512.863E-03
            4946         87.2689         99.4975         35.9446     402.434E-03
            4947         86.9398         99.6683         39.4438     280.828E-03
            4948         86.6694         99.7756         43.1683     147.313E-03
            4949         86.4850         99.8129         47.1311     1.10543E-03
            4950         53.3955         60.0717         18.0210     299.292E-03
            4951         53.8408         60.3705         17.3354     298.369E-03
            4952         54.2944         60.6684         16.6550     297.632E-03
            4953         54.7561         60.9657         15.9795     297.024E-03
            4954         55.2255         61.2625         15.3089     296.501E-03
            4955         55.7023         61.5587         14.6430     296.021E-03
            4956         56.1861         61.8544         13.9820     295.550E-03
            4957         56.6765         62.1497         13.3260     295.059E-03
            4958         57.1729         62.4445         12.6751     294.527E-03
            4959         57.6749         62.7387         12.0295     293.937E-03
            4960         58.1819         63.0322         11.3895     293.280E-03
            4961         58.6934         63.3251         10.7554     292.551E-03
            4962         59.2088         63.6172         10.1276     291.751E-03
            4963         59.7275         63.9084         9.50630     290.887E-03
            4964         60.2490         64.1988         8.89198     289.970E-03
            4965         60.7728         64.4882         8.28496     289.013E-03
            4966         61.2982         64.7766         7.68563     288.035E-03
            4967         61.8249         65.0640         7.09432     287.059E-03
            4968         62.3522         65.3504         6.51140     286.108E-03
            4969         62.8799         65.6359         5.93719     285.207E-03
            4970         63.4074         65.9205         5.37203     284.385E-03
            4971         63.9344         66.2044         4.81621     283.670E-03
            4972         64.4606         66.4876         4.27001     283.090E-03
            4973         64.9857         66.7702         3.73370     282.674E-03
            4974         65.5096         67.0526         3.20751     282.451E-03
            4975         66.0319         67.3348         2.69165     282.448E-03
            4976         66.5527         67.6171         2.18634     282.692E-03
            4977         67.0717         67.8998         1.69174     283.207E-03
            4978         67.5890         68.1831         1.20802     284.017E-03
            4979         68.1045         68.4674     735.323E-03     285.143E-03
            4980         68.6183         68.7530     273.787E-03     286.605E-03
            4981         69.1304         69.0402    -176.463E-03     288.421E-03
            4982         69.6409         69.3294    -615.309E-03     290.604E-03
            4983         70.1499         69.6209        -1.04264     293.169E-03
            4984         70.6576         69.9153        -1.45833     296.126E-03
            4985         71.1640         70.2127        -1.86226     299.484E-03
            4986         71.6694         70.5137        -2.25431     303.248E-03
            4987         72.1739         70.8187        -2.63435     307.422E-03
            4988         72.6777         71.1281        -3.00221     312.008E-03
            4989         73.1809         71.4422        -3.35773     317.005E-03
            4990         73.6837         71.7615        -3.70072     322.412E-03
            4991         74.1863         72.0865        -4.03097     328.222E-03
            4992         74.6888         72.4174        -4.34822     334.431E-03
            4993         75.1912         72.7547        -4.65220     341.029E-03
            4994         75.6937         73.0989        -4.94261     348.005E-03
            4995         76.1963         73.4501        -5.21908     355.349E-03
            4996         76.6992         73.8089        -5.48123     363.046E-03
            4997         77.2021         74.1756        -5.72861     371.081E-03
            4998         77.7052         74.5504        -5.96074     379.437E-03
            4999         78.2084         74.9338        -6.17708     388.095E-03
            5000         78.7114         75.3259        -6.37703     397.034E-03
            5001         79.2142         75.7271        -6.55994     406.234E-03
            5002         79.7165         76.1377        -6.72509     415.671E-03
            5003         80.2180         76.5577        -6.87170     425.320E-03
            5004         80.7184         76.9875        -6.99893     435.154E-03
            5005         81.2173         77.4272        -7.10583     445.146E-03
            5006         81.7142         77.8770        -7.19144     455.265E-03
            5007         82.2086         78.3369        -7.25465     465.481E-03
            5008         82.7000         78.8071        -7.29433     475.761E-03
            5009         83.1876         79.2876        -7.30921     486.069E-03
            5010         83.6708         79.7783        -7.29799     496.370E-03
            5011         84.1487         80.2794        -7.25921     506.623E-03
            5012         84.6205         80.7906        -7.19137     516.790E-03
            5013         85.0853         81.3120        -7.09284     526.825E-03
            5014         85.5420         81.8432        -6.96189     536.686E-03
            5015         85.9895         82.3843        -6.79668     546.322E-03
            5016         86.4268         82.9348        -6.59525     555.685E-03
            5017         86.8524         83.4946        -6.35553     564.720E-03
            5018         87.2652         84.0631        -6.07531     573.371E-03
            5019         87.6637         84.6402        -5.75227     581.577E-03
            5020         88.0465         85.2251        -5.38393     589.276E-03
            5021         88.4121         85.8175        -4.96767     596.399E-03
            5022         88.7588         86.4167        -4.50073     602.875E-03
            5023         89.0850         87.0220        -3.98019     608.627E-03
            5024         89.3890         87.6326        -3.40296     613.572E-03
            5025         89.6690         88.2477        -2.76575     617.625E-03
            5026         89.9233         88.8665        -2.06513     620.692E-03
            5027         90.1499         89.4877        -1.29744     622.673E-03
            5028         90.3471         90.1104    -458.838E-03     623.463E-03
            5029         90.5131         90.7332     454.759E-03     622.947E-03
            5030         90.6460         91.3548         1.44764     621.004E-03
            5031         90.7441         91.9736         2.52433     617.503E-03
            5032         90.8058         92.5882         3.68965     612.305E-03
            5033         90.8295         93.1966         4.94864     605.262E-03
            5034         90.8140         93.7970         6.30666     596.212E-03
            5035         90.7581         94.3874         7.76936     584.987E-03
            5036         90.6611         94.9653         9.34270     571.405E-03
            5037         90.5227         95.5284         11.0330     555.271E-03
            5038         90.3431         96.0740         12.8468     536.379E-03
            5039         90.1231         96.5993         14.7913     514.511E-03
            5040         89.8644         97.1012         16.8738     489.432E-03
            5041         89.5697         97.5763         19.1022     460.895E-03
            5042         89.2430         98.0210         21.4848     428.641E-03
            5043         88.8896         98.4316         24.0301     392.392E-03
            5044         88.5169         98.8038         26.7476     351.859E-03
            5045         88.1342         99.1333         29.6467     306.737E-03
            5046         87.7537         99.4152         32.7378     256.705E-03
            5047         87.3904         99.6446         36.0316     201.429E-03
            5048         87.0631         99.8159         39.5394     140.562E-03
            5049         86.7945         99.9235         43.2731     73.7350E-03
            5050         86.6118         99.9609         47.2458     551.499E-06
            5051         53.3945         60.0734         18.0216    -74.5058E-09
            5052         53.8399         60.3722         17.3358    -63.3299E-09
            5053         54.2936         60.6703         16.6553    -65.1926E-09
            5054         54.7554         60.9676         15.9798    -59.6046E-09
            5055         55.2249         61.2644         15.3091    -50.2914E-09
            5056         55.7018         61.5606         14.6433    -50.2914E-09
            5057         56.1857         61.8564         13.9823    -41.9095E-09
            5058         56.6761         62.1518         13.3262    -43.3065E-09
            5059         57.1726         62.4466         12.6753    -35.8559E-09
            5060         57.6747         62.7408         12.0298    -37.7186E-09
            5061         58.1818         63.0345         11.3898    -36.7872E-09
            5062         58.6934         63.3274         10.7558    -29.8023E-09
            5063         59.2089         63.6196         10.1280    -32.1306E-09
            5064         59.7278         63.9110         9.50674    -25.6114E-09
            5065         60.2495         64.2015         8.89244    -26.0770E-09
            5066         60.7734         64.4910         8.28545    -26.5427E-09
            5067         61.2990         64.7796         7.68612    -20.4891E-09
            5068         61.8259         65.0672         7.09480    -22.3517E-09
            5069         62.3535         65.3539         6.51186    -23.7487E-09
            5070         62.8814         65.6396         5.93763    -19.0921E-09
            5071         63.4092         65.9245         5.37242    -20.9548E-09
            5072         63.9365         66.2086         4.81654    -21.8861E-09
            5073         64.4631         66.4920         4.27026    -20.4891E-09
            5074         64.9886         66.7750         3.73386    -19.5578E-09
            5075         65.5128         67.0576         3.20756    -20.9548E-09
            5076         66.0355         67.3402         2.69159    -24.2144E-09
            5077         66.5567         67.6228         2.18615    -25.1457E-09
            5078         67.0762         67.9059         1.69141    -27.9397E-09
            5079         67.5939         68.1896         1.20754    -24.6800E-09
            5080         68.1099         68.4743     734.677E-03    -27.9397E-09
            5081         68.6242         68.7603     272.968E-03    -30.2680E-09
            5082         69.1368         69.0479    -177.463E-03    -33.5276E-09
            5083         69.6478         69.3375    -616.496E-03    -37.7186E-09
            5084         70.1574         69.6295        -1.04402    -40.5125E-09
            5085         70.6656         69.9243        -1.45990    -42.8408E-09
            5086         71.1725         70.2222        -1.86404    -44.7035E-09
            5087         71.6785         70.5237        -2.25630    -52.1541E-09
            5088         72.1836         70.8292        -2.63654    -53.0854E-09
            5089         72.6879         71.1390        -3.00461    -62.3986E-09
            5090         73.1917         71.4537        -3.36033    -69.8492E-09
            5091         73.6951         71.7735        -3.70353    -73.5745E-09
            5092         74.1982         72.0990        -4.03397    -79.1624E-09
            5093         74.7013         72.4304        -4.35142    -81.0251E-09
            5094         75.2043         72.7683        -4.65560    -80.0937E-09
            5095         75.7074         73.1130        -4.94619    -100.583E-09
            5096         76.2106         73.4648        -5.22284    -102.445E-09
            5097         76.7140         73.8242        -5.48516    -104.308E-09
            5098         77.2175         74.1914        -5.73271    -111.759E-09
            5099         77.7212         74.5668        -5.96500    -135.042E-09
            5100         78.2249         74.9508        -6.18148    -138.767E-09
            5101         78.7285         75.3435        -6.38157    -146.218E-09
            5102         79.2318         75.7453        -6.56460    -157.394E-09
            5103         79.7347         76.1565        -6.72987    -170.432E-09
            5104         80.2368         76.5772        -6.87658    -179.745E-09
            5105         80.7377         77.0076        -7.00389    -199.303E-09
            5106         81.2371         77.4479        -7.11087    -192.784E-09
            5107         81.7346         77.8984        -7.19652    -221.655E-09
            5108         82.2295         78.3589        -7.25978    -244.007E-09
            5109         82.7214         78.8298        -7.29948    -255.182E-09
            5110         83.2096         79.3109        -7.31437    -273.809E-09
            5111         83.6933         79.8024        -7.30313    -276.603E-09
            5112         84.1717         80.3041        -7.26432    -304.542E-09
            5113         84.6440         80.8161        -7.19643    -314.787E-09
            5114         85.1093         81.3381        -7.09782    -348.315E-09
            5115         85.5665         81.8701        -6.96677    -363.216E-09
            5116         86.0145         82.4119        -6.80144    -388.362E-09
            5117         86.4523         82.9632        -6.59986    -411.645E-09
            5118         86.8784         83.5237        -6.35996    -435.859E-09
            5119         87.2917         84.0930        -6.07954    -447.035E-09
            5120         87.6907         84.6708        -5.75625    -483.356E-09
            5121         88.0740         85.2565        -5.38764    -506.639E-09
            5122         88.4400         85.8496        -4.97108    -536.442E-09
            5123         88.7872         86.4496        -4.50380    -571.832E-09
            5124         89.1139         87.0557        -3.98288    -588.596E-09
            5125         89.4184         87.6671        -3.40521    -609.085E-09
            5126         89.6988         88.2831        -2.76754    -655.651E-09
            5127         89.9536         88.9026        -2.06640    -663.102E-09
            5128         90.1807         89.5246        -1.29814    -707.805E-09
            5129         90.3784         90.1480    -458.916E-03    -730.157E-09
            5130         90.5448         90.7716     455.364E-03    -759.959E-09
            5131         90.6782         91.3940         1.44899    -782.311E-09
            5132         90.7767         92.0136         2.52650    -793.487E-09
            5133         90.8389         92.6289         3.69270    -823.289E-09
            5134         90.8631         93.2381         4.95265    -827.014E-09
            5135         90.8480         93.8393         6.31172    -827.946E-09
            5136         90.7926         94.4303         7.77555    -839.122E-09
            5137         90.6961         95.0090         9.35011    -822.358E-09
            5138         90.5582         95.5728         11.0417    -807.457E-09
            5139         90.3790         96.1190         12.8570    -782.311E-09
            5140         90.1595         96.6449         14.8030    -751.577E-09
            5141         89.9013         97.1474         16.8872    -687.316E-09
            5142         89.6071         97.6230         19.1174    -635.162E-09
            5143         89.2808         98.0683         21.5019    -545.755E-09
            5144         88.9280         98.4793         24.0493    -475.906E-09
            5145         88.5557         98.8519         26.7689    -372.529E-09
            5146         88.1736         99.1817         29.6705    -298.023E-09
            5147         87.7936         99.4640         32.7641    -218.861E-09
            5148         87.4309         99.6936         36.0606    -155.531E-09
            5149         87.1042         99.8651         39.5713    -104.541E-09
            5150         86.8362         99.9728         43.3081    -30.6172E-09
            5151         86.6542         100.010         47.2840    -3.25963E-09
            5152         53.3955         60.0717         18.0210    -299.292E-03
            5153         53.8408         60.3705         17.3354    -298.369E-03
            5154         54.2944         60.6684         16.6550    -297.632E-03
            5155         54.7561         60.9657         15.9795    -297.025E-03
            5156         55.2255         61.2625         15.3089    -296.501E-03
            5157         55.7023         61.5587         14.6430    -296.021E-03
            5158         56.1861         61.8544         13.9820    -295.550E-03
            5159         56.6765         62.1497         13.3260    -295.059E-03
            5160         57.1729         62.4445         12.6751    -294.527E-03
            5161         57.6749         62.7387         12.0295    -293.937E-03
            5162         58.1819         63.0322         11.3895    -293.280E-03
            5163         58.6934         63.3251         10.7554    -292.551E-03
            5164         59.2088         63.6172         10.1276    -291.752E-03
            5165         59.7275         63.9084         9.50630    -290.888E-03
            5166         60.2490         64.1988         8.89198    -289.970E-03
            5167         60.7728         64.4882         8.28496    -289.013E-03
            5168         61.2982         64.7766         7.68563    -288.035E-03
            5169         61.8249         65.0640         7.09432    -287.059E-03
            5170         62.3522         65.3504         6.51140    -286.108E-03
            5171         62.8799         65.6359         5.93719    -285.207E-03
            5172         63.4074         65.9205         5.37203    -284.385E-03
            5173         63.9344         66.2044         4.81621    -283.670E-03
            5174         64.4606         66.4876         4.27001    -283.090E-03
            5175         64.9857         66.7702         3.73370    -282.675E-03
            5176         65.5096         67.0526         3.20751    -282.452E-03
            5177         66.0319         67.3348         2.69165    -282.449E-03
            5178         66.5527         67.6171         2.18634    -282.692E-03
            5179         67.0717         67.8998         1.69174    -283.207E-03
            5180         67.5890         68.1831         1.20802    -284.017E-03
            5181         68.1045         68.4674     735.323E-03    -285.143E-03
            5182         68.6183         68.7530     273.787E-03    -286.605E-03
            5183         69.1304         69.0402    -176.463E-03    -288.421E-03
            5184         69.6409         69.3294    -615.308E-03    -290.605E-03
            5185         70.1499         69.6209        -1.04264    -293.170E-03
            5186         70.6576         69.9153        -1.45833    -296.127E-03
            5187         71.1640         70.2127        -1.86226    -299.484E-03
            5188         71.6694         70.5137        -2.25431    -303.248E-03
            5189         72.1739         70.8187        -2.63435    -307.422E-03
            5190         72.6777         71.1281        -3.00221    -312.008E-03
            5191         73.1809         71.4422        -3.35773    -317.006E-03
            5192         73.6837         71.7615        -3.70072    -322.412E-03
            5193         74.1863         72.0865        -4.03097    -328.223E-03
            5194         74.6888         72.4174        -4.34822    -334.431E-03
            5195         75.1912         72.7547        -4.65220    -341.029E-03
            5196         75.6937         73.0989        -4.94261    -348.006E-03
            5197         76.1963         73.4501        -5.21908    -355.350E-03
            5198         76.6992         73.8089        -5.48123    -363.047E-03
            5199         77.2021         74.1756        -5.72861    -371.082E-03
            5200         77.7052         74.5504        -5.96074    -379.437E-03
            5201         78.2084         74.9338        -6.17708    -388.095E-03
            5202         78.7114         75.3259        -6.37703    -397.035E-03
            5203         79.2142         75.7271        -6.55994    -406.235E-03
            5204         79.7165         76.1376        -6.72509    -415.672E-03
            5205         80.2180         76.5577        -6.87171    -425.320E-03
            5206         80.7184         76.9875        -6.99893    -435.155E-03
            5207         81.2173         77.4272        -7.10583    -445.146E-03
            5208         81.7142         77.8770        -7.19144    -455.266E-03
            5209         82.2086         78.3369        -7.25465    -465.482E-03
            5210         82.7000         78.8071        -7.29433    -475.762E-03
            5211         83.1876         79.2876        -7.30921    -486.070E-03
            5212         83.6708         79.7783        -7.29799    -496.370E-03
            5213         84.1487         80.2794        -7.25921    -506.624E-03
            5214         84.6205         80.7906        -7.19137    -516.791E-03
            5215         85.0853         81.3120        -7.09284    -526.826E-03
            5216         85.5420         81.8432        -6.96189    -536.687E-03
            5217         85.9895         82.3843        -6.79668    -546.323E-03
            5218         86.4268         82.9348        -6.59525    -555.686E-03
            5219         86.8524         83.4946        -6.35553    -564.721E-03
            5220         87.2652         84.0631        -6.07531    -573.372E-03
            5221         87.6637         84.6402        -5.75227    -581.579E-03
            5222         88.0465         85.2251        -5.38393    -589.277E-03
            5223         88.4121         85.8175        -4.96767    -596.401E-03
            5224         88.7588         86.4167        -4.50073    -602.876E-03
            5225         89.0850         87.0220        -3.98019    -608.628E-03
            5226         89.3890         87.6326        -3.40296    -613.574E-03
            5227         89.6690         88.2478        -2.76575    -617.627E-03
            5228         89.9233         88.8665        -2.06513    -620.694E-03
            5229         90.1499         89.4877        -1.29744    -622.675E-03
            5230         90.3471         90.1104    -458.838E-03    -623.465E-03
            5231         90.5131         90.7332     454.759E-03    -622.949E-03
            5232         90.6460         91.3548         1.44764    -621.006E-03
            5233         90.7441         91.9736         2.52433    -617.505E-03
            5234         90.8058         92.5882         3.68965    -612.307E-03
            5235         90.8295         93.1966         4.94864    -605.263E-03
            5236         90.8140         93.7970         6.30666    -596.214E-03
            5237         90.7581         94.3874         7.76936    -584.989E-03
            5238         90.6611         94.9653         9.34270    -571.407E-03
            5239         90.5227         95.5284         11.0330    -555.273E-03
            5240         90.3431         96.0740         12.8468    -536.381E-03
            5241         90.1231         96.5993         14.7913    -514.512E-03
            5242         89.8644         97.1012         16.8738    -489.433E-03
            5243         89.5697         97.5763         19.1022    -460.897E-03
            5244         89.2430         98.0210         21.4848    -428.642E-03
            5245         88.8896         98.4316         24.0301    -392.393E-03
            5246         88.5169         98.8038         26.7476    -351.860E-03
            5247         88.1342         99.1333         29.6467    -306.737E-03
            5248         87.7537         99.4152         32.7378    -256.705E-03
            5249         87.3904         99.6446         36.0316    -201.429E-03
            5250         87.0631         99.8159         39.5394    -140.562E-03
            5251         86.7945         99.9235         43.2731    -73.7352E-03
            5252         86.6119         99.9609         47.2458    -551.511E-06
            5253         53.3985         60.0665         18.0195    -598.480E-03
            5254         53.8434         60.3652         17.3342    -596.644E-03
            5255         54.2967         60.6630         16.6540    -595.175E-03
            5256         54.7581         60.9602         15.9787    -593.964E-03
            5257         55.2273         61.2568         15.3081    -592.916E-03
            5258         55.7039         61.5528         14.6423    -591.951E-03
            5259         56.1875         61.8485         13.9813    -591.000E-03
            5260         56.6776         62.1436         13.3252    -590.006E-03
            5261         57.1738         62.4381         12.6742    -588.926E-03
            5262         57.6755         62.7321         12.0285    -587.727E-03
            5263         58.1823         63.0255         11.3884    -586.390E-03
            5264         58.6934         63.3180         10.7542    -584.907E-03
            5265         59.2084         63.6098         10.1263    -583.279E-03
            5266         59.7268         63.9007         9.50494    -581.521E-03
            5267         60.2478         64.1906         8.89055    -579.652E-03
            5268         60.7710         64.4796         8.28350    -577.704E-03
            5269         61.2959         64.7675         7.68414    -575.714E-03
            5270         61.8219         65.0543         7.09285    -573.725E-03
            5271         62.3485         65.3402         6.50999    -571.785E-03
            5272         62.8753         65.6250         5.93588    -569.947E-03
            5273         63.4020         65.9089         5.37086    -568.265E-03
            5274         63.9281         66.1920         4.81522    -566.798E-03
            5275         64.4533         66.4743         4.26925    -565.602E-03
            5276         64.9773         66.7561         3.73320    -564.735E-03
            5277         65.5000         67.0375         3.20732    -564.255E-03
            5278         66.0212         67.3187         2.69182    -564.216E-03
            5279         66.5406         67.5999         2.18689    -564.671E-03
            5280         67.0583         67.8815         1.69272    -565.670E-03
            5281         67.5742         68.1637         1.20946    -567.260E-03
            5282         68.0883         68.4468     737.250E-03    -569.485E-03
            5283         68.6006         68.7312     276.231E-03    -572.382E-03
            5284         69.1112         69.0171    -173.477E-03    -575.987E-03
            5285         69.6202         69.3050    -611.759E-03    -580.330E-03
            5286         70.1276         69.5952        -1.03850    -585.437E-03
            5287         70.6336         69.8882        -1.45360    -591.329E-03
            5288         71.1384         70.1842        -1.85693    -598.023E-03
            5289         71.6421         70.4838        -2.24837    -605.531E-03
            5290         72.1450         70.7873        -2.62778    -613.859E-03
            5291         72.6470         71.0952        -2.99503    -623.013E-03
            5292         73.1485         71.4078        -3.34993    -632.990E-03
            5293         73.6496         71.7256        -3.69232    -643.785E-03
            5294         74.1505         72.0490        -4.02196    -655.389E-03
            5295         74.6512         72.3783        -4.33862    -667.789E-03
            5296         75.1519         72.7140        -4.64203    -680.968E-03
            5297         75.6527         73.0565        -4.93187    -694.905E-03
            5298         76.1536         73.4061        -5.20780    -709.576E-03
            5299         76.6547         73.7632        -5.46943    -724.954E-03
            5300         77.1560         74.1281        -5.71632    -741.007E-03
            5301         77.6574         74.5012        -5.94798    -757.702E-03
            5302         78.1588         74.8828        -6.16388    -775.002E-03
            5303         78.6602         75.2731        -6.36343    -792.864E-03
            5304         79.1613         75.6725        -6.54597    -811.247E-03
            5305         79.6619         76.0812        -6.71078    -830.104E-03
            5306         80.1618         76.4994        -6.85709    -849.384E-03
            5307         80.6605         76.9273        -6.98406    -869.035E-03
            5308         81.1578         77.3651        -7.09075    -889.001E-03
            5309         81.6531         77.8129        -7.17618    -909.222E-03
            5310         82.1459         78.2709        -7.23928    -929.636E-03
            5311         82.6357         78.7390        -7.27888    -950.178E-03
            5312         83.1217         79.2175        -7.29376    -970.777E-03
            5313         83.6034         79.7062        -7.28257    -991.360E-03
            5314         84.0798         80.2051        -7.24389        -1.01185
            5315         84.5500         80.7143        -7.17622        -1.03216
            5316         85.0133         81.2335        -7.07792        -1.05222
            5317         85.4685         81.7626        -6.94726        -1.07192
            5318         85.9145         82.3015        -6.78243        -1.09118
            5319         86.3503         82.8498        -6.58145        -1.10989
            5320         86.7745         83.4073        -6.34226        -1.12794
            5321         87.1858         83.9736        -6.06266        -1.14523
            5322         87.5828         84.5483        -5.74033        -1.16163
            5323         87.9642         85.1310        -5.37280        -1.17701
            5324         88.3283         85.7210        -4.95746        -1.19125
            5325         88.6736         86.3179        -4.49155        -1.20419
            5326         88.9984         86.9208        -3.97215        -1.21569
            5327         89.3009         87.5291        -3.39618        -1.22557
            5328         89.5795         88.1419        -2.76039        -1.23367
            5329         89.8323         88.7583        -2.06132        -1.23981
            5330         90.0576         89.3771        -1.29533        -1.24377
            5331         90.2534         89.9974    -458.600E-03        -1.24536
            5332         90.4179         90.6179     452.950E-03        -1.24433
            5333         90.5495         91.2371         1.44359        -1.24046
            5334         90.6462         91.8537         2.51785        -1.23347
            5335         90.7065         92.4659         3.68051        -1.22310
            5336         90.7288         93.0721         4.93662        -1.20904
            5337         90.7119         93.6703         6.29151        -1.19097
            5338         90.6546         94.2585         7.75082        -1.16856
            5339         90.5562         94.8343         9.32047        -1.14144
            5340         90.4164         95.3954         11.0068        -1.10922
            5341         90.2354         95.9391         12.8163        -1.07149
            5342         90.0140         96.4625         14.7562        -1.02782
            5343         89.7538         96.9626         16.8337    -977.732E-03
            5344         89.4577         97.4361         19.0568    -920.737E-03
            5345         89.1295         97.8793         21.4335    -856.314E-03
            5346         88.7746         98.2885         23.9727    -783.911E-03
            5347         88.4003         98.6595         26.6834    -702.946E-03
            5348         88.0160         98.9879         29.5755    -612.811E-03
            5349         87.6339         99.2689         32.6589    -512.863E-03
            5350         87.2689         99.4975         35.9446    -402.434E-03
            5351         86.9398         99.6683         39.4438    -280.827E-03
            5352         86.6694         99.7756         43.1683    -147.313E-03
            5353         86.4850         99.8129         47.1311    -1.10544E-03
            5354         53.4034         60.0580         18.0169    -897.461E-03
            5355         53.8479         60.3564         17.3322    -894.732E-03
            5356         54.3007         60.6540         16.6523    -892.544E-03
            5357         54.7617         60.9509         15.9773    -890.733E-03
            5358         55.2304         61.2473         15.3069    -889.158E-03
            5359         55.7066         61.5432         14.6411    -887.699E-03
            5360         56.1898         61.8386         13.9801    -886.251E-03
            5361         56.6796         62.1334         13.3239    -884.729E-03
            5362         57.1754         62.4277         12.6728    -883.069E-03
            5363         57.6767         62.7213         12.0269    -881.223E-03
            5364         58.1829         63.0143         11.3866    -879.161E-03
            5365         58.6935         63.3064         10.7523    -876.871E-03
            5366         59.2080         63.5977         10.1241    -874.359E-03
            5367         59.7256         63.8879         9.50264    -871.644E-03
            5368         60.2458         64.1772         8.88813    -868.760E-03
            5369         60.7682         64.4654         8.28099    -865.752E-03
            5370         61.2920         64.7524         7.68161    -862.678E-03
            5371         61.8169         65.0384         7.09035    -859.602E-03
            5372         62.3423         65.3232         6.50758    -856.600E-03
            5373         62.8679         65.6069         5.93363    -853.749E-03
            5374         63.3930         65.8895         5.36884    -851.134E-03
            5375         63.9175         66.1713         4.81350    -848.840E-03
            5376         64.4411         66.4522         4.26791    -846.956E-03
            5377         64.9633         66.7325         3.73231    -845.567E-03
            5378         65.4841         67.0123         3.20695    -844.760E-03
            5379         66.0033         67.2918         2.69203    -844.618E-03
            5380         66.5206         67.5714         2.18776    -845.221E-03
            5381         67.0361         67.8511         1.69429    -846.642E-03
            5382         67.5497         68.1314         1.21180    -848.954E-03
            5383         68.0614         68.4126     740.415E-03    -852.221E-03
            5384         68.5712         68.6949     280.261E-03    -856.500E-03
            5385         69.0793         68.9787    -168.541E-03    -861.844E-03
            5386         69.5856         69.2644    -605.882E-03    -868.298E-03
            5387         70.0904         69.5524        -1.03166    -875.901E-03
            5388         70.5937         69.8431        -1.44576    -884.684E-03
            5389         71.0958         70.1368        -1.84808    -894.672E-03
            5390         71.5967         70.4340        -2.23849    -905.883E-03
            5391         72.0967         70.7351        -2.61688    -918.328E-03
            5392         72.5960         71.0405        -2.98309    -932.012E-03
            5393         73.0946         71.3506        -3.33697    -946.932E-03
            5394         73.5928         71.6658        -3.67833    -963.081E-03
            5395         74.0908         71.9865        -4.00697    -980.445E-03
            5396         74.5886         72.3132        -4.32265    -999.002E-03
            5397         75.0864         72.6462        -4.62509        -1.01873
            5398         75.5843         72.9859        -4.91400        -1.03959
            5399         76.0824         73.3328        -5.18903        -1.06156
            5400         76.5806         73.6870        -5.44980        -1.08458
            5401         77.0790         74.0491        -5.69586        -1.10862
            5402         77.5776         74.4193        -5.92675        -1.13362
            5403         78.0762         74.7979        -6.14192        -1.15953
            5404         78.5747         75.1853        -6.34078        -1.18628
            5405         79.0731         75.5817        -6.52270        -1.21382
            5406         79.5709         75.9873        -6.68695        -1.24206
            5407         80.0680         76.4023        -6.83277        -1.27094
            5408         80.5641         76.8271        -6.95930        -1.30037
            5409         81.0586         77.2617        -7.06564        -1.33027
            5410         81.5512         77.7062        -7.15079        -1.36056
            5411         82.0414         78.1609        -7.21369        -1.39114
            5412         82.5286         78.6257        -7.25317        -1.42191
            5413         83.0120         79.1008        -7.26802        -1.45276
            5414         83.4910         79.5861        -7.25690        -1.48359
            5415         83.9649         80.0816        -7.21839        -1.51428
            5416         84.4326         80.5872        -7.15099        -1.54471
            5417         84.8933         81.1028        -7.05307        -1.57474
            5418         85.3460         81.6283        -6.92291        -1.60426
            5419         85.7896         82.1635        -6.75869        -1.63310
            5420         86.2228         82.7082        -6.55846        -1.66112
            5421         86.6445         83.2620        -6.32016        -1.68817
            5422         87.0534         83.8245        -6.04160        -1.71406
            5423         87.4481         84.3954        -5.72045        -1.73863
            5424         87.8270         84.9743        -5.35427        -1.76167
            5425         88.1887         85.5605        -4.94045        -1.78300
            5426         88.5316         86.1534        -4.47625        -1.80239
            5427         88.8540         86.7525        -3.95876        -1.81961
            5428         89.1542         87.3568        -3.38491        -1.83442
            5429         89.4304         87.9657        -2.75145        -1.84657
            5430         89.6809         88.5781        -2.05496        -1.85576
            5431         89.9037         89.1930        -1.29182        -1.86171
            5432         90.0972         89.8094    -458.194E-03        -1.86410
            5433         90.2594         90.4259     449.952E-03        -1.86259
            5434         90.3886         91.0413         1.43688        -1.85681
            5435         90.4830         91.6539         2.50708        -1.84637
            5436         90.5410         92.2624         3.66533        -1.83086
            5437         90.5610         92.8648         4.91664        -1.80984
            5438         90.5417         93.4594         6.26632        -1.78281
            5439         90.4822         94.0439         7.71998        -1.74929
            5440         90.3815         94.6163         9.28352        -1.70871
            5441         90.2393         95.1740         10.9632        -1.66051
            5442         90.0559         95.7144         12.7656        -1.60406
            5443         89.8322         96.2347         14.6978        -1.53871
            5444         89.5696         96.7319         16.7670        -1.46376
            5445         89.2711         97.2026         18.9811        -1.37846
            5446         88.9404         97.6433         21.3482        -1.28205
            5447         88.5829         98.0502         23.8770        -1.17368
            5448         88.2061         98.4191         26.5767        -1.05248
            5449         87.8192         98.7457         29.4569    -917.555E-03
            5450         87.4342         99.0252         32.5277    -767.928E-03
            5451         87.0665         99.2526         35.7999    -602.595E-03
            5452         86.7345         99.4225         39.2846    -420.511E-03
            5453         86.4612         99.5292         42.9938    -220.572E-03
            5454         86.2738         99.5663         46.9403    -1.63629E-03
            5455         53.4105         60.0462         18.0134        -1.19614
            5456         53.8542         60.3442         17.3293        -1.19254
            5457         54.3063         60.6415         16.6500        -1.18966
            5458         54.7667         60.9382         15.9753        -1.18725
            5459         55.2349         61.2343         15.3051        -1.18515
            5460         55.7106         61.5298         14.6394        -1.18318
            5461         56.1933         61.8249         13.9784        -1.18121
            5462         56.6825         62.1194         13.3220        -1.17912
            5463         57.1777         62.4132         12.6707        -1.17683
            5464         57.6784         62.7064         12.0246        -1.17428
            5465         58.1840         62.9988         11.3841        -1.17143
            5466         58.6939         63.2903         10.7494        -1.16825
            5467         59.2074         63.5808         10.1210        -1.16477
            5468         59.7241         63.8703         9.49930        -1.16101
            5469         60.2433         64.1586         8.88461        -1.15701
            5470         60.7644         64.4457         8.27736        -1.15284
            5471         61.2868         64.7315         7.67793        -1.14857
            5472         61.8102         65.0161         7.08671        -1.14430
            5473         62.3339         65.2995         6.50407        -1.14012
            5474         62.8575         65.5816         5.93035        -1.13615
            5475         63.3807         65.8626         5.36588        -1.13248
            5476         63.9030         66.1425         4.81097        -1.12925
            5477         64.4241         66.4214         4.26591        -1.12657
            5478         64.9438         66.6996         3.73094        -1.12456
            5479         65.4619         66.9772         3.20631        -1.12332
            5480         65.9782         67.2544         2.69222        -1.12297
            5481         66.4926         67.5315         2.18886        -1.12363
            5482         67.0050         67.8087         1.69640        -1.12538
            5483         67.5154         68.0864         1.21498        -1.12833
            5484         68.0237         68.3647     744.750E-03        -1.13255
            5485         68.5301         68.6442     285.812E-03        -1.13813
            5486         69.0346         68.9251    -161.717E-03        -1.14514
            5487         69.5373         69.2078    -597.737E-03        -1.15363
            5488         70.0383         69.4926        -1.02215        -1.16366
            5489         70.5379         69.7801        -1.43486        -1.17527
            5490         71.0361         70.0706        -1.83575        -1.18849
            5491         71.5331         70.3644        -2.22473        -1.20335
            5492         72.0292         70.6621        -2.60167        -1.21985
            5493         72.5245         70.9640        -2.96644        -1.23801
            5494         73.0191         71.2705        -3.31888        -1.25782
            5495         73.5133         71.5822        -3.65881        -1.27927
            5496         74.0072         71.8993        -3.98604        -1.30234
            5497         74.5010         72.2222        -4.30034        -1.32700
            5498         74.9948         72.5515        -4.60144        -1.35323
            5499         75.4887         72.8874        -4.88904        -1.38097
            5500         75.9827         73.2303        -5.16281        -1.41018
            5501         76.4769         73.5806        -5.42237        -1.44081
            5502         76.9713         73.9387        -5.66728        -1.47278
            5503         77.4659         74.3048        -5.89707        -1.50604
            5504         77.9606         74.6793        -6.11122        -1.54051
            5505         78.4552         75.0625        -6.30914        -1.57610
            5506         78.9496         75.4546        -6.49018        -1.61273
            5507         79.4436         75.8559        -6.65365        -1.65030
            5508         79.9369         76.2667        -6.79877        -1.68873
            5509         80.4291         76.6870        -6.92471        -1.72789
            5510         80.9199         77.1171        -7.03055        -1.76768
            5511         81.4087         77.5571        -7.11530        -1.80798
            5512         81.8952         78.0072        -7.17792        -1.84867
            5513         82.3786         78.4673        -7.21724        -1.88961
            5514         82.8584         78.9377        -7.23205        -1.93066
            5515         83.3338         79.4182        -7.22102        -1.97169
            5516         83.8041         79.9088        -7.18275        -2.01252
            5517         84.2682         80.4095        -7.11573        -2.05301
            5518         84.7254         80.9202        -7.01834        -2.09298
            5519         85.1746         81.4407        -6.88888        -2.13225
            5520         85.6147         81.9708        -6.72552        -2.17063
            5521         86.0445         82.5103        -6.52634        -2.20792
            5522         86.4628         83.0588        -6.28928        -2.24391
            5523         86.8682         83.6161        -6.01215        -2.27836
            5524         87.2595         84.1817        -5.69267        -2.31105
            5525         87.6350         84.7552        -5.32837        -2.34172
            5526         87.9934         85.3360        -4.91668        -2.37010
            5527         88.3329         85.9235        -4.45487        -2.39591
            5528         88.6519         86.5171        -3.94004        -2.41883
            5529         88.9488         87.1160        -3.36914        -2.43856
            5530         89.2217         87.7193        -2.73895        -2.45473
            5531         89.4689         88.3262        -2.04607        -2.46699
            5532         89.6885         88.9356        -1.28688        -2.47493
            5533         89.8787         89.5465    -457.602E-03        -2.47814
            5534         90.0376         90.1575     445.791E-03        -2.47616
            5535         90.1636         90.7674         1.42752        -2.46851
            5536         90.2547         91.3747         2.49207        -2.45467
            5537         90.3094         91.9778         3.64416        -2.43409
            5538         90.3262         92.5750         4.88877        -2.40617
            5539         90.3037         93.1644         6.23117        -2.37029
            5540         90.2409         93.7439         7.67695        -2.32576
            5541         90.1369         94.3113         9.23195        -2.27187
            5542         89.9915         94.8643         10.9024        -2.20783
            5543         89.8049         95.4002         12.6948        -2.13283
            5544         89.5778         95.9162         14.6162        -2.04599
            5545         89.3119         96.4093         16.6738        -1.94638
            5546         89.0100         96.8761         18.8754        -1.83302
            5547         88.6758         97.3133         21.2291        -1.70487
            5548         88.3149         97.7169         23.7435        -1.56081
            5549         87.9344         98.0829         26.4277        -1.39970
            5550         87.5438         98.4070         29.2913        -1.22031
            5551         87.1551         98.6844         32.3444        -1.02135
            5552         86.7834         98.9101         35.5977    -801.496E-03
            5553         86.4475         99.0788         39.0623    -559.339E-03
            5554         86.1701         99.1847         42.7499    -293.412E-03
            5555         85.9786         99.2216         46.6737    -2.18331E-03
            5556         53.4197         60.0312         18.0089        -1.49441
            5557         53.8625         60.3288         17.3258        -1.48999
            5558         54.3138         60.6257         16.6471        -1.48643
            5559         54.7734         60.9220         15.9728        -1.48344
            5560         55.2409         61.2177         15.3029        -1.48081
            5561         55.7159         61.5129         14.6372        -1.47831
            5562         56.1980         61.8076         13.9761        -1.47578
            5563         56.6865         62.1016         13.3195        -1.47308
            5564         57.1811         62.3949         12.6679        -1.47009
            5565         57.6810         62.6875         12.0215        -1.46676
            5566         58.1857         62.9792         11.3806        -1.46301
            5567         58.6946         63.2699         10.7456        -1.45885
            5568         59.2071         63.5594         10.1168        -1.45429
            5569         59.7225         63.8478         9.49481        -1.44935
            5570         60.2402         64.1349         8.87989        -1.44410
            5571         60.7597         64.4206         8.27248        -1.43863
            5572         61.2804         64.7050         7.67299        -1.43303
            5573         61.8018         64.9879         7.08182        -1.42741
            5574         62.3232         65.2693         6.49934        -1.42191
            5575         62.8445         65.5494         5.92591        -1.41666
            5576         63.3650         65.8282         5.36186        -1.41180
            5577         63.8844         66.1057         4.80750        -1.40749
            5578         64.4025         66.3822         4.26312        -1.40386
            5579         64.9190         66.6577         3.72897        -1.40108
            5580         65.4336         66.9324         3.20528        -1.39927
            5581         65.9462         67.2066         2.69226        -1.39859
            5582         66.4568         67.4805         2.19009        -1.39917
            5583         66.9651         67.7544         1.69892        -1.40113
            5584         67.4713         68.0286         1.21891        -1.40459
            5585         67.9753         68.3035     750.160E-03        -1.40966
            5586         68.4773         68.5792     292.793E-03        -1.41644
            5587         68.9772         68.8563    -153.092E-03        -1.42501
            5588         69.4752         69.1351    -587.405E-03        -1.43545
            5589         69.9714         69.4160        -1.01006        -1.44781
            5590         70.4661         69.6993        -1.42097        -1.46216
            5591         70.9594         69.9856        -1.82003        -1.47853
            5592         71.4514         70.2752        -2.20716        -1.49695
            5593         71.9424         70.5685        -2.58224        -1.51744
            5594         72.4325         70.8659        -2.94514        -1.54000
            5595         72.9221         71.1679        -3.29573        -1.56463
            5596         73.4111         71.4749        -3.63382        -1.59131
            5597         73.8999         71.7873        -3.95924        -1.62002
            5598         74.3885         72.1055        -4.27176        -1.65073
            5599         74.8770         72.4299        -4.57113        -1.68338
            5600         75.3657         72.7609        -4.85705        -1.71794
            5601         75.8546         73.0988        -5.12920        -1.75433
            5602         76.3436         73.4441        -5.38720        -1.79249
            5603         76.8329         73.7970        -5.63063        -1.83234
            5604         77.3224         74.1579        -5.85902        -1.87379
            5605         77.8120         74.5271        -6.07185        -1.91674
            5606         78.3015         74.9050        -6.26855        -1.96111
            5607         78.7910         75.2916        -6.44848        -2.00677
            5608         79.2800         75.6875        -6.61094        -2.05361
            5609         79.7683         76.0926        -6.75517        -2.10151
            5610         80.2556         76.5072        -6.88033        -2.15033
            5611         80.7415         76.9316        -6.98553        -2.19994
            5612         81.2256         77.3658        -7.06978        -2.25018
            5613         81.7073         77.8100        -7.13204        -2.30091
            5614         82.1860         78.2641        -7.17116        -2.35195
            5615         82.6611         78.7284        -7.18592        -2.40313
            5616         83.1319         79.2027        -7.17501        -2.45427
            5617         83.5975         79.6871        -7.13703        -2.50519
            5618         84.0571         80.1815        -7.07049        -2.55567
            5619         84.5097         80.6858        -6.97379        -2.60550
            5620         84.9544         81.1999        -6.84522        -2.65446
            5621         85.3900         81.7234        -6.68298        -2.70231
            5622         85.8153         82.2563        -6.48514        -2.74880
            5623         86.2292         82.7982        -6.24966        -2.79366
            5624         86.6302         83.3487        -5.97439        -2.83662
            5625         87.0171         83.9075        -5.65702        -2.87738
            5626         87.3883         84.4741        -5.29515        -2.91562
            5627         87.7423         85.0480        -4.88618        -2.95101
            5628         88.0776         85.6285        -4.42743        -2.98320
            5629         88.3923         86.2151        -3.91601        -3.01180
            5630         88.6849         86.8069        -3.34890        -3.03641
            5631         88.9536         87.4031        -2.72290        -3.05659
            5632         89.1965         88.0029        -2.03463        -3.07190
            5633         89.4119         88.6053        -1.28052        -3.08184
            5634         89.5979         89.2090    -456.803E-03        -3.08589
            5635         89.7526         89.8130     440.502E-03        -3.08347
            5636         89.8744         90.4159         1.41558        -3.07400
            5637         89.9613         91.0163         2.47288        -3.05683
            5638         90.0119         91.6125         3.61707        -3.03126
            5639         90.0245         92.2030         4.85310        -2.99656
            5640         89.9978         92.7857         6.18619        -2.95194
            5641         89.9308         93.3588         7.62186        -2.89656
            5642         89.8227         93.9199         9.16591        -2.82951
            5643         89.6732         94.4668         10.8245        -2.74984
            5644         89.4823         94.9968         12.6042        -2.65651
            5645         89.2510         95.5073         14.5117        -2.54844
            5646         88.9808         95.9951         16.5545        -2.42446
            5647         88.6745         96.4570         18.7400        -2.28335
            5648         88.3360         96.8896         21.0765        -2.12380
            5649         87.9706         97.2890         23.5724        -1.94444
            5650         87.5855         97.6513         26.2368        -1.74381
            5651         87.1902         97.9721         29.0792        -1.52040
            5652         86.7966         98.2468         32.1095        -1.27259
            5653         86.4200         98.4703         35.3385    -998.710E-03
            5654         86.0789         98.6374         38.7772    -697.015E-03
            5655         85.7964         98.7424         42.4374    -365.676E-03
            5656         85.5996         98.7788         46.3318    -2.74728E-03
            5657         53.4312         60.0132         18.0036        -1.79219
            5658         53.8729         60.3104         17.3215        -1.78700
            5659         54.3232         60.6068         16.6436        -1.78279
            5660         54.7819         60.9026         15.9698        -1.77924
            5661         55.2486         61.1979         15.3000        -1.77606
            5662         55.7228         61.4927         14.6345        -1.77301
            5663         56.2041         61.7868         13.9732        -1.76987
            5664         56.6919         62.0803         13.3164        -1.76649
            5665         57.1855         62.3730         12.6644        -1.76273
            5666         57.6845         62.6648         12.0175        -1.75851
            5667         58.1882         62.9557         11.3761        -1.75376
            5668         58.6959         63.2454         10.7406        -1.74848
            5669         59.2071         63.5338         10.1115        -1.74268
            5670         59.7209         63.8209         9.48904        -1.73642
            5671         60.2369         64.1064         8.87380        -1.72975
            5672         60.7545         64.3905         8.26618        -1.72280
            5673         61.2730         64.6730         7.66661        -1.71568
            5674         61.7918         64.9538         7.07549        -1.70854
            5675         62.3106         65.2330         6.49321        -1.70152
            5676         62.8289         65.5105         5.92013        -1.69481
            5677         63.3461         65.7866         5.35660        -1.68857
            5678         63.8621         66.0612         4.80292        -1.68299
            5679         64.3764         66.3345         4.25939        -1.67824
            5680         64.8888         66.6067         3.72624        -1.67450
            5681         65.3992         66.8779         3.20372        -1.67196
            5682         65.9073         67.1485         2.69202        -1.67078
            5683         66.4131         67.4185         2.19131        -1.67112
            5684         66.9166         67.6884         1.70173        -1.67314
            5685         67.4176         67.9584         1.22344        -1.67697
            5686         67.9163         68.2289     756.523E-03        -1.68276
            5687         68.4128         68.5002     301.090E-03        -1.69060
            5688         68.9071         68.7726    -142.774E-03        -1.70061
            5689         69.3993         69.0466    -574.991E-03        -1.71287
            5690         69.8897         69.3226    -995.487E-03        -1.72746
            5691         70.3784         69.6010        -1.40418        -1.74444
            5692         70.8656         69.8821        -1.80101        -1.76386
            5693         71.3515         70.1664        -2.18586        -1.78574
            5694         71.8363         70.4543        -2.55866        -1.81012
            5695         72.3203         70.7464        -2.91928        -1.83699
            5696         72.8035         71.0428        -3.26759        -1.86635
            5697         73.2862         71.3442        -3.60344        -1.89818
            5698         73.7686         71.6508        -3.92664        -1.93245
            5699         74.2509         71.9632        -4.23699        -1.96911
            5700         74.7332         72.2817        -4.53424        -2.00812
            5701         75.2155         72.6067        -4.81810        -2.04941
            5702         75.6980         72.9385        -5.08826        -2.09290
            5703         76.1808         73.2776        -5.34436        -2.13851
            5704         76.6638         73.6243        -5.58598        -2.18615
            5705         77.1470         73.9789        -5.81266        -2.23570
            5706         77.6304         74.3416        -6.02389        -2.28707
            5707         78.1139         74.7129        -6.21910        -2.34012
            5708         78.5971         75.0930        -6.39767        -2.39473
            5709         79.0801         75.4821        -6.55890        -2.45076
            5710         79.5624         75.8804        -6.70203        -2.50804
            5711         80.0437         76.2881        -6.82626        -2.56644
            5712         80.5237         76.7055        -6.93067        -2.62578
            5713         81.0019         77.1326        -7.01431        -2.68587
            5714         81.4778         77.5695        -7.07613        -2.74655
            5715         81.9507         78.0164        -7.11499        -2.80760
            5716         82.4201         78.4733        -7.12969        -2.86882
            5717         82.8851         78.9401        -7.11893        -2.93000
            5718         83.3451         79.4170        -7.08132        -2.99090
            5719         83.7991         79.9036        -7.01537        -3.05128
            5720         84.2462         80.4001        -6.91950        -3.11088
            5721         84.6854         80.9063        -6.79202        -3.16945
            5722         85.1155         81.4219        -6.63113        -3.22668
            5723         85.5354         81.9467        -6.43492        -3.28229
            5724         85.9439         82.4804        -6.20138        -3.33596
            5725         86.3396         83.0227        -5.92836        -3.38735
            5726         86.7212         83.5732        -5.61358        -3.43611
            5727         87.0871         84.1314        -5.25464        -3.48186
            5728         87.4358         84.6968        -4.84900        -3.52420
            5729         87.7658         85.2688        -4.39397        -3.56271
            5730         88.0753         85.8468        -3.88671        -3.59694
            5731         88.3627         86.4300        -3.32421        -3.62641
            5732         88.6262         87.0177        -2.70330        -3.65059
            5733         88.8639         87.6088        -2.02065        -3.66895
            5734         89.0741         88.2025        -1.27271        -3.68089
            5735         89.2550         88.7976    -455.768E-03        -3.68579
            5736         89.4046         89.3930     434.129E-03        -3.68298
            5737         89.5212         89.9873         1.40112        -3.67175
            5738         89.6031         90.5792         2.44959        -3.65131
            5739         89.6485         91.1671         3.58418        -3.62086
            5740         89.6560         91.7493         4.80977        -3.57951
            5741         89.6243         92.3239         6.13152        -3.52630
            5742         89.5522         92.8891         7.55489        -3.46025
            5743         89.4391         93.4425         9.08563        -3.38027
            5744         89.2844         93.9819         10.7298        -3.28520
            5745         89.0884         94.5048         12.4939        -3.17383
            5746         88.8519         95.0084         14.3847        -3.04484
            5747         88.5766         95.4898         16.4093        -2.89685
            5748         88.2651         95.9456         18.5753        -2.72838
            5749         87.9211         96.3726         20.8908        -2.53787
            5750         87.5503         96.7670         23.3642        -2.32367
            5751         87.1596         97.1247         26.0044        -2.08404
            5752         86.7586         97.4415         28.8209        -1.81715
            5753         86.3592         97.7128         31.8235        -1.52108
            5754         85.9765         97.9337         35.0229        -1.19381
            5755         85.6294         98.0988         38.4301    -833.241E-03
            5756         85.3406         98.2026         42.0566    -437.161E-03
            5757         85.1375         98.2386         45.9154    -3.26104E-03
            5758         53.4452         59.9925         17.9974        -2.08940
            5759         53.8856         60.2890         17.3165        -2.08349
            5760         54.3348         60.5849         16.6395        -2.07867
            5761         54.7925         60.8803         15.9662        -2.07457
            5762         55.2582         61.1751         15.2967        -2.07084
            5763         55.7315         61.4693         14.6311        -2.06720
            5764         56.2119         61.7629         13.9696        -2.06341
            5765         56.6988         62.0558         13.3124        -2.05927
            5766         57.1914         62.3477         12.6599        -2.05464
            5767         57.6894         62.6387         12.0125        -2.04940
            5768         58.1918         62.9285         11.3705        -2.04351
            5769         58.6982         63.2171         10.7344        -2.03695
            5770         59.2077         63.5041         10.1047        -2.02974
            5771         59.7197         63.7896         9.48179        -2.02195
            5772         60.2337         64.0735         8.86617        -2.01367
            5773         60.7489         64.3555         8.25829        -2.00503
            5774         61.2647         64.6357         7.65860        -1.99617
            5775         61.7807         64.9141         7.06753        -1.98727
            5776         62.2962         65.1906         6.48548        -1.97852
            5777         62.8109         65.4652         5.91282        -1.97011
            5778         63.3243         65.7380         5.34990        -1.96227
            5779         63.8361         66.0092         4.79703        -1.95519
            5780         64.3459         66.2788         4.25451        -1.94910
            5781         64.8535         66.5471         3.72257        -1.94420
            5782         65.3588         66.8141         3.20144        -1.94072
            5783         65.8616         67.0803         2.69131        -1.93884
            5784         66.3618         67.3457         2.19234        -1.93876
            5785         66.8594         67.6108         1.70467        -1.94065
            5786         67.3544         67.8759         1.22842        -1.94469
            5787         67.8468         68.1412     763.694E-03        -1.95102
            5788         68.3368         68.4072     310.562E-03        -1.95977
            5789         68.8244         68.6741    -130.897E-03        -1.97107
            5790         69.3098         68.9425    -560.620E-03        -1.98502
            5791         69.7933         69.2127    -978.550E-03        -2.00170
            5792         70.2749         69.4851        -1.38462        -2.02119
            5793         70.7550         69.7602        -1.77878        -2.04353
            5794         71.2336         70.0383        -2.16094        -2.06877
            5795         71.7111         70.3200        -2.53103        -2.09692
            5796         72.1876         70.6056        -2.88894        -2.12800
            5797         72.6634         70.8955        -3.23456        -2.16198
            5798         73.1387         71.1902        -3.56775        -2.19886
            5799         73.6136         71.4901        -3.88833        -2.23858
            5800         74.0884         71.7956        -4.19610        -2.28111
            5801         74.5632         72.1072        -4.49085        -2.32637
            5802         75.0381         72.4251        -4.77228        -2.37429
            5803         75.5131         72.7498        -5.04010        -2.42479
            5804         75.9885         73.0816        -5.29395        -2.47776
            5805         76.4641         73.4209        -5.53343        -2.53309
            5806         76.9400         73.7679        -5.75809        -2.59065
            5807         77.4160         74.1231        -5.96743        -2.65033
            5808         77.8922         74.4867        -6.16088        -2.71197
            5809         78.3683         74.8590        -6.33784        -2.77543
            5810         78.8440         75.2401        -6.49761        -2.84053
            5811         79.3192         75.6304        -6.63946        -2.90711
            5812         79.7935         76.0300        -6.76258        -2.97497
            5813         80.2665         76.4391        -6.86607        -3.04393
            5814         80.7378         76.8578        -6.94898        -3.11377
            5815         81.2068         77.2863        -7.01028        -3.18429
            5816         81.6729         77.7246        -7.04885        -3.25525
            5817         82.1355         78.1727        -7.06348        -3.32640
            5818         82.5939         78.6308        -7.05289        -3.39750
            5819         83.0472         79.0986        -7.01571        -3.46828
            5820         83.4946         79.5763        -6.95046        -3.53845
            5821         83.9351         80.0636        -6.85556        -3.60773
            5822         84.3678         80.5604        -6.72936        -3.67579
            5823         84.7915         81.0666        -6.57006        -3.74231
            5824         85.2050         81.5819        -6.37578        -3.80695
            5825         85.6071         82.1060        -6.14452        -3.86932
            5826         85.9965         82.6386        -5.87415        -3.92906
            5827         86.3717         83.1793        -5.56241        -3.98573
            5828         86.7314         83.7276        -5.20694        -4.03891
            5829         87.0739         84.2830        -4.80520        -4.08814
            5830         87.3976         84.8450        -4.35455        -4.13292
            5831         87.7010         85.4129        -3.85217        -4.17273
            5832         87.9822         85.9859        -3.29509        -4.20701
            5833         88.2395         86.5634        -2.68018        -4.23516
            5834         88.4712         87.1443        -2.00413        -4.25655
            5835         88.6753         87.7278        -1.26345        -4.27050
            5836         88.8501         88.3127    -454.464E-03        -4.27629
            5837         88.9936         88.8979     426.725E-03        -4.27314
            5838         89.1042         89.4822         1.38421        -4.26021
            5839         89.1801         90.0640         2.42231        -4.23661
            5840         89.2195         90.6420         3.54561        -4.20139
            5841         89.2211         91.2145         4.75892        -4.15353
            5842         89.1833         91.7795         6.06735        -4.09193
            5843         89.1053         92.3353         7.47627        -4.01542
            5844         88.9861         92.8797         8.99135        -3.92276
            5845         88.8255         93.4103         10.6186        -3.81259
            5846         88.6235         93.9247         12.3644        -3.68351
            5847         88.3809         94.4202         14.2354        -3.53398
            5848         88.0995         94.8939         16.2386        -3.36240
            5849         87.7818         95.3427         18.3817        -3.16704
            5850         87.4316         95.7630         20.6725        -2.94608
            5851         87.0543         96.1513         23.1194        -2.69761
            5852         86.6572         96.5037         25.7311        -2.41960
            5853         86.2495         96.8158         28.5171        -2.10990
            5854         85.8432         97.0831         31.4871        -1.76627
            5855         85.4536         97.3008         34.6517        -1.38637
            5856         85.0992         97.4636         38.0216    -967.731E-03
            5857         84.8032         97.5659         41.6085    -507.783E-03
            5858         84.5928         97.6015         45.4252    -3.81148E-03
            5859         53.4619         59.9692         17.9905        -2.38596
            5860         53.9008         60.2651         17.3109        -2.37940
            5861         54.3487         60.5605         16.6348        -2.37402
            5862         54.8053         60.8553         15.9621        -2.36938
            5863         55.2700         61.1495         15.2928        -2.36509
            5864         55.7423         61.4432         14.6271        -2.36083
            5865         56.2217         61.7362         13.9653        -2.35632
            5866         56.7075         62.0283         13.3076        -2.35133
            5867         57.1991         62.3194         12.6545        -2.34569
            5868         57.6958         62.6094         12.0063        -2.33930
            5869         58.1968         62.8981         11.3636        -2.33210
            5870         58.7016         63.1853         10.7268        -2.32407
            5871         59.2093         63.4708         10.0964        -2.31524
            5872         59.7192         63.7545         9.47285        -2.30570
            5873         60.2308         64.0363         8.85675        -2.29556
            5874         60.7432         64.3160         8.24855        -2.28497
            5875         61.2560         64.5937         7.64871        -2.27412
            5876         61.7686         64.8691         7.05769        -2.26320
            5877         62.2803         65.1424         6.47589        -2.25244
            5878         62.7909         65.4136         5.90372        -2.24208
            5879         63.2998         65.6827         5.34151        -2.23236
            5880         63.8066         65.9499         4.78960        -2.22353
            5881         64.3112         66.2152         4.24825        -2.21584
            5882         64.8133         66.4789         3.71772        -2.20954
            5883         65.3127         66.7412         3.19821        -2.20488
            5884         65.8092         67.0023         2.68992        -2.20207
            5885         66.3029         67.2624         2.19299        -2.20135
            5886         66.7937         67.5220         1.70754        -2.20291
            5887         67.2816         67.7813         1.23369        -2.20695
            5888         67.7667         68.0406     771.500E-03        -2.21363
            5889         68.2492         68.3005     321.048E-03        -2.22312
            5890         68.7291         68.5611    -117.613E-03        -2.23554
            5891         69.2067         68.8230    -544.438E-03        -2.25101
            5892         69.6821         69.0865    -959.388E-03        -2.26963
            5893         70.1556         69.3521        -1.36242        -2.29148
            5894         70.6273         69.6202        -1.75348        -2.31662
            5895         71.0976         69.8912        -2.13252        -2.34507
            5896         71.5666         70.1656        -2.49947        -2.37688
            5897         72.0346         70.4438        -2.85425        -2.41203
            5898         72.5019         70.7262        -3.19676        -2.45053
            5899         72.9685         71.0132        -3.52686        -2.49233
            5900         73.4349         71.3054        -3.84441        -2.53740
            5901         73.9010         71.6030        -4.14922        -2.58568
            5902         74.3672         71.9065        -4.44106        -2.63708
            5903         74.8334         72.2163        -4.71969        -2.69153
            5904         75.2999         72.5327        -4.98480        -2.74891
            5905         75.7667         72.8562        -5.23606        -2.80912
            5906         76.2338         73.1870        -5.47308        -2.87203
            5907         76.7012         73.5255        -5.69541        -2.93750
            5908         77.1689         73.8719        -5.90256        -3.00538
            5909         77.6366         74.2267        -6.09399        -3.07549
            5910         78.1044         74.5900        -6.26910        -3.14767
            5911         78.5719         74.9620        -6.42720        -3.22174
            5912         79.0389         75.3431        -6.56757        -3.29748
            5913         79.5051         75.7333        -6.68941        -3.37469
            5914         79.9700         76.1329        -6.79184        -3.45315
            5915         80.4333         76.5420        -6.87392        -3.53262
            5916         80.8943         76.9607        -6.93462        -3.61285
            5917         81.3526         77.3891        -6.97284        -3.69358
            5918         81.8074         77.8273        -6.98739        -3.77455
            5919         82.2581         78.2751        -6.97700        -3.85544
            5920         82.7038         78.7327        -6.94031        -3.93598
            5921         83.1435         79.1999        -6.87586        -4.01582
            5922         83.5765         79.6767        -6.78209        -4.09465
            5923         84.0017         80.1628        -6.65736        -4.17209
            5924         84.4180         80.6582        -6.49989        -4.24778
            5925         84.8241         81.1625        -6.30782        -4.32132
            5926         85.2189         81.6756        -6.07917        -4.39229
            5927         85.6009         82.1970        -5.81184        -4.46026
            5928         85.9689         82.7264        -5.50360        -4.52476
            5929         86.3214         83.2633        -5.15210        -4.58528
            5930         86.6567         83.8073        -4.75486        -4.64131
            5931         86.9733         84.3577        -4.30923        -4.69228
            5932         87.2695         84.9139        -3.81245        -4.73761
            5933         87.5437         85.4753        -3.26158        -4.77666
            5934         87.7939         86.0410        -2.65354        -4.80875
            5935         88.0185         86.6102        -1.98507        -4.83317
            5936         88.2156         87.1818        -1.25272        -4.84914
            5937         88.3834         87.7550    -452.855E-03        -4.85583
            5938         88.5200         88.3286     418.350E-03        -4.85238
            5939         88.6236         88.9012         1.36493        -4.83783
            5940         88.6926         89.4715         2.39115        -4.81118
            5941         88.7251         90.0381         3.50151        -4.77134
            5942         88.7197         90.5992         4.70075        -4.71714
            5943         88.6751         91.1533         5.99390        -4.64736
            5944         88.5902         91.6983         7.38624        -4.56065
            5945         88.4641         92.2321         8.88337        -4.45560
            5946         88.2966         92.7526         10.4912        -4.33068
            5947         88.0877         93.2572         12.2160        -4.18427
            5948         87.8382         93.7434         14.0643        -4.01465
            5949         87.5498         94.2083         16.0431        -3.81996
            5950         87.2250         94.6487         18.1598        -3.59826
            5951         86.8676         95.0614         20.4222        -3.34746
            5952         86.4831         95.4427         22.8386        -3.06538
            5953         86.0785         95.7888         25.4177        -2.74969
            5954         85.6632         96.0955         28.1686        -2.39795
            5955         85.2492         96.3582         31.1011        -2.00760
            5956         84.8516         96.5722         34.2255        -1.57595
            5957         84.4892         96.7323         37.5527        -1.10018
            5958         84.1848         96.8330         41.0940    -577.357E-03
            5959         83.9661         96.8680         44.8621    -4.35224E-03
            5960         53.4813         59.9438         17.9829        -2.68181
            5961         53.9187         60.2390         17.3048        -2.67468
            5962         54.3653         60.5337         16.6296        -2.66879
            5963         54.8206         60.8279         15.9574        -2.66363
            5964         55.2842         61.1216         15.2882        -2.65878
            5965         55.7555         61.4146         14.6224        -2.65384
            5966         56.2338         61.7069         13.9601        -2.64853
            5967         56.7184         61.9982         13.3018        -2.64258
            5968         57.2088         62.2885         12.6479        -2.63580
            5969         57.7041         62.5774         11.9988        -2.62809
            5970         58.2036         62.8648         11.3552        -2.61937
            5971         58.7066         63.1504         10.7175        -2.60964
            5972         59.2122         63.4342         10.0862        -2.59895
            5973         59.7197         63.7159         9.46197        -2.58740
            5974         60.2285         63.9953         8.84529        -2.57512
            5975         60.7379         64.2724         8.23668        -2.56230
            5976         61.2472         64.5471         7.63666        -2.54915
            5977         61.7558         64.8193         7.04567        -2.53591
            5978         62.2632         65.0890         6.46417        -2.52283
            5979         62.7690         65.3562         5.89255        -2.51021
            5980         63.2727         65.6211         5.33116        -2.49831
            5981         63.7740         65.8837         4.78034        -2.48743
            5982         64.2726         66.1441         4.24034        -2.47785
            5983         64.7683         66.4026         3.71143        -2.46987
            5984         65.2609         66.6594         3.19380        -2.46375
            5985         65.7504         66.9147         2.68762        -2.45976
            5986         66.2366         67.1689         2.19303        -2.45814
            5987         66.7196         67.4221         1.71013        -2.45914
            5988         67.1995         67.6749         1.23902        -2.46295
            5989         67.6763         67.9275     779.747E-03        -2.46978
            5990         68.1502         68.1803     332.362E-03        -2.47980
            5991         68.6214         68.4338    -103.098E-03        -2.49316
            5992         69.0900         68.6883    -526.612E-03        -2.50997
            5993         69.5563         68.9442    -938.157E-03        -2.53037
            5994         70.0205         69.2021        -1.33771        -2.55442
            5995         70.4828         69.4623        -1.72525        -2.58218
            5996         70.9436         69.7252        -2.10073        -2.61371
            5997         71.4030         69.9914        -2.46411        -2.64903
            5998         71.8613         70.2612        -2.81533        -2.68813
            5999         72.3189         70.5351        -3.15430        -2.73100
            6000         72.7758         70.8136        -3.48090        -2.77760
            6001         73.2324         71.0969        -3.79501        -2.82788
            6002         73.6888         71.3857        -4.09644        -2.88178
            6003         74.1452         71.6801        -4.38500        -2.93920
            6004         74.6017         71.9807        -4.66045        -3.00004
            6005         75.0585         72.2879        -4.92250        -3.06420
            6006         75.5156         72.6019        -5.17082        -3.13153
            6007         75.9730         72.9231        -5.40504        -3.20189
            6008         76.4308         73.2519        -5.62474        -3.27513
            6009         76.8890         73.5885        -5.82942        -3.35106
            6010         77.3473         73.9332        -6.01857        -3.42952
            6011         77.8056         74.2864        -6.19157        -3.51030
            6012         78.2638         74.6482        -6.34779        -3.59319
            6013         78.7216         75.0188        -6.48648        -3.67796
            6014         79.1786         75.3985        -6.60688        -3.76438
            6015         79.6344         75.7874        -6.70811        -3.85220
            6016         80.0886         76.1856        -6.78925        -3.94115
            6017         80.5407         76.5933        -6.84927        -4.03095
            6018         80.9901         77.0106        -6.88710        -4.12132
            6019         81.4361         77.4374        -6.90157        -4.21195
            6020         81.8780         77.8738        -6.89140        -4.30250
            6021         82.3150         78.3197        -6.85527        -4.39264
            6022         82.7462         78.7751        -6.79172        -4.48202
            6023         83.1707         79.2400        -6.69922        -4.57025
            6024         83.5874         79.7141        -6.57614        -4.65693
            6025         83.9952         80.1972        -6.42074        -4.74165
            6026         84.3930         80.6892        -6.23117        -4.82397
            6027         84.7794         81.1897        -6.00547        -4.90342
            6028         85.1533         81.6985        -5.74156        -4.97950
            6029         85.5130         82.2152        -5.43726        -5.05170
            6030         85.8573         82.7392        -5.09024        -5.11947
            6031         86.1845         83.2702        -4.69804        -5.18220
            6032         86.4930         83.8075        -4.25807        -5.23929
            6033         86.7812         84.3506        -3.76760        -5.29007
            6034         87.0473         84.8988        -3.22373        -5.33383
            6035         87.2896         85.4512        -2.62343        -5.36983
            6036         87.5062         86.0071        -1.96348        -5.39725
            6037         87.6954         86.5655        -1.24049        -5.41524
            6038         87.8552         87.1254    -450.899E-03        -5.42288
            6039         87.9839         87.6856     409.074E-03        -5.41918
            6040         88.0797         88.2451         1.34339        -5.40310
            6041         88.1407         88.8023         2.35623        -5.37351
            6042         88.1654         89.3560         3.45203        -5.32920
            6043         88.1523         89.9044         4.63545        -5.26887
            6044         88.0999         90.4459         5.91140        -5.19114
            6045         88.0072         90.9787         7.28510        -5.09451
            6046         87.8734         91.5006         8.76202        -4.97740
            6047         87.6981         92.0096         10.3480        -4.83812
            6048         87.4814         92.5032         12.0491        -4.67483
            6049         87.2241         92.9787         13.8719        -4.48560
            6050         86.9278         93.4336         15.8231        -4.26838
            6051         86.5951         93.8646         17.9102        -4.02095
            6052         86.2297         94.2686         20.1406        -3.74100
            6053         85.8370         94.6420         22.5227        -3.42606
            6054         85.4241         94.9809         25.0648        -3.07352
            6055         85.0004         95.2814         27.7762        -2.68063
            6056         84.5777         95.5389         30.6664        -2.24450
            6057         84.1713         95.7487         33.7455        -1.76211
            6058         83.7998         95.9058         37.0244        -1.23029
            6059         83.4864         96.0045         40.5142    -645.706E-03
            6060         83.2585         96.0389         44.2275    -4.86077E-03
            6061         53.5039         59.9164         17.9747        -2.97690
            6062         53.9397         60.2109         17.2981        -2.96928
            6063         54.3848         60.5049         16.6239        -2.96294
            6064         54.8389         60.7985         15.9522        -2.95729
            6065         55.3012         61.0916         15.2831        -2.95185
            6066         55.7714         61.3840         14.6169        -2.94620
            6067         56.2485         61.6755         13.9540        -2.93999
            6068         56.7320         61.9660         13.2949        -2.93295
            6069         57.2211         62.2553         12.6400        -2.92487
            6070         57.7149         62.5430         11.9898        -2.91564
            6071         58.2126         62.8290         11.3451        -2.90517
            6072         58.7136         63.1130         10.7062        -2.89349
            6073         59.2169         63.3947         10.0740        -2.88065
            6074         59.7217         63.6741         9.44886        -2.86678
            6075         60.2274         63.9510         8.83148        -2.85204
            6076         60.7333         64.2251         8.22239        -2.83666
            6077         61.2386         64.4965         7.62212        -2.82087
            6078         61.7428         64.7650         7.03117        -2.80495
            6079         62.2453         65.0306         6.44998        -2.78922
            6080         62.7457         65.2934         5.87898        -2.77398
            6081         63.2435         65.5535         5.31853        -2.75956
            6082         63.7385         65.8109         4.76894        -2.74629
            6083         64.2303         66.0658         4.23049        -2.73451
            6084         64.7188         66.3185         3.70342        -2.72452
            6085         65.2038         66.5691         3.18792        -2.71665
            6086         65.6852         66.8179         2.68414        -2.71118
            6087         66.1630         67.0653         2.19221        -2.70840
            6088         66.6373         67.3115         1.71220        -2.70856
            6089         67.1081         67.5569         1.24419        -2.71191
            6090         67.5756         67.8020     788.218E-03        -2.71865
            6091         68.0399         68.0470     344.302E-03        -2.72898
            6092         68.5012         68.2924    -87.5454E-03        -2.74306
            6093         68.9597         68.5387    -507.322E-03        -2.76103
            6094         69.4158         68.7862    -915.032E-03        -2.78301
            6095         69.8696         69.0354        -1.31067        -2.80908
            6096         70.3214         69.2868        -1.69424        -2.83931
            6097         70.7715         69.5407        -2.06573        -2.87375
            6098         71.2202         69.7978        -2.42511        -2.91242
            6099         71.6678         70.0583        -2.77232        -2.95531
            6100         72.1145         70.3227        -3.10732        -3.00241
            6101         72.5605         70.5915        -3.43000        -3.05367
            6102         73.0062         70.8651        -3.74025        -3.10902
            6103         73.4517         71.1439        -4.03792        -3.16840
            6104         73.8972         71.4283        -4.32281        -3.23170
            6105         74.3429         71.7187        -4.59470        -3.29880
            6106         74.7888         72.0155        -4.85332        -3.36958
            6107         75.2351         72.3190        -5.09837        -3.44388
            6108         75.6818         72.6296        -5.32947        -3.52156
            6109         76.1290         72.9475        -5.54622        -3.60242
            6110         76.5765         73.2732        -5.74815        -3.68628
            6111         77.0242         73.6069        -5.93474        -3.77293
            6112         77.4721         73.9487        -6.10541        -3.86215
            6113         77.9199         74.2991        -6.25952        -3.95371
            6114         78.3673         74.6581        -6.39635        -4.04736
            6115         78.8141         75.0261        -6.51514        -4.14283
            6116         79.2597         75.4031        -6.61503        -4.23985
            6117         79.7039         75.7892        -6.69512        -4.33812
            6118         80.1460         76.1847        -6.75440        -4.43734
            6119         80.5854         76.5895        -6.79179        -4.53719
            6120         81.0216         77.0037        -6.80616        -4.63731
            6121         81.4538         77.4273        -6.79624        -4.73736
            6122         81.8811         77.8603        -6.76073        -4.83695
            6123         82.3027         78.3026        -6.69818        -4.93569
            6124         82.7177         78.7542        -6.60710        -5.03317
            6125         83.1249         79.2148        -6.48586        -5.12894
            6126         83.5233         79.6844        -6.33275        -5.22254
            6127         83.9118         80.1626        -6.14595        -5.31349
            6128         84.2890         80.6492        -5.92352        -5.40127
            6129         84.6536         81.1439        -5.66342        -5.48533
            6130         85.0042         81.6464        -5.36349        -5.56511
            6131         85.3394         82.1561        -5.02144        -5.63999
            6132         85.6575         82.6726        -4.63485        -5.70933
            6133         85.9570         83.1954        -4.20116        -5.77244
            6134         86.2362         83.7238        -3.71769        -5.82859
            6135         86.4933         84.2572        -3.18159        -5.87700
            6136         86.7267         84.7949        -2.58987        -5.91685
            6137         86.9344         85.3359        -1.93937        -5.94726
            6138         87.1147         85.8795        -1.22677        -5.96727
            6139         87.2657         86.4245    -448.554E-03        -5.97588
            6140         87.3856         86.9700     398.968E-03        -5.97200
            6141         87.4726         87.5148         1.31969        -5.95449
            6142         87.5249         88.0574         2.31771        -5.92209
            6143         87.5409         88.5967         3.39737        -5.87348
            6144         87.5190         89.1309         4.56324        -5.80723
            6145         87.4580         89.6584         5.82014        -5.72181
            6146         87.3566         90.1775         7.17317        -5.61558
            6147         87.2142         90.6861         8.62769        -5.48679
            6148         87.0303         91.1822         10.1894        -5.33356
            6149         86.8049         91.6633         11.8643        -5.15389
            6150         86.5390         92.1271         13.6587        -4.94562
            6151         86.2340         92.5707         15.5794        -4.70648
            6152         85.8925         92.9912         17.6335        -4.43404
            6153         85.5183         93.3854         19.8285        -4.12570
            6154         85.1166         93.7498         22.1723        -3.77875
            6155         84.6946         94.0809         24.6735        -3.39027
            6156         84.2615         94.3744         27.3409        -2.95723
            6157         83.8294         94.6260         30.1840        -2.47640
            6158         83.4133         94.8311         33.2128        -1.94442
            6159         83.0320         94.9847         36.4378        -1.35776
            6160         82.7086         95.0814         39.8703    -712.724E-03
            6161         82.4708         95.1150         43.5226    -5.40220E-03
            6162         53.5299         59.8875         17.9661        -3.27118
            6163         53.9639         60.1812         17.2911        -3.26319
            6164         54.4076         60.4746         16.6178        -3.25646
            6165         54.8603         60.7676         15.9464        -3.25034
            6166         55.3215         61.0600         15.2773        -3.24429
            6167         55.7904         61.3518         14.6106        -3.23786
            6168         56.2664         61.6426         13.9469        -3.23065
            6169         56.7486         61.9322         13.2867        -3.22237
            6170         57.2363         62.2203         12.6305        -3.21281
            6171         57.7285         62.5068         11.9791        -3.20182
            6172         58.2244         62.7912         11.3329        -3.18935
            6173         58.7231         63.0733         10.6928        -3.17543
            6174         59.2238         63.3529         10.0593        -3.16012
            6175         59.7256         63.6298         9.43318        -3.14358
            6176         60.2279         63.9037         8.81496        -3.12602
            6177         60.7298         64.1746         8.20529        -3.10769
            6178         61.2306         64.4422         7.60473        -3.08887
            6179         61.7298         64.7066         7.01379        -3.06990
            6180         62.2268         64.9677         6.43296        -3.05111
            6181         62.7212         65.2256         5.86265        -3.03287
            6182         63.2124         65.4803         5.30324        -3.01555
            6183         63.7003         65.7319         4.75505        -2.99952
            6184         64.1845         65.9807         4.21835        -2.98516
            6185         64.6649         66.2269         3.69336        -2.97283
            6186         65.1414         66.4706         3.18026        -2.96286
            6187         65.6138         66.7123         2.67918        -2.95560
            6188         66.0823         66.9521         2.19024        -2.95136
            6189         66.5469         67.1905         1.71348        -2.95041
            6190         67.0076         67.4278         1.24895        -2.95301
            6191         67.4646         67.6644     796.677E-03        -2.95942
            6192         67.9183         67.9008     356.641E-03        -2.96982
            6193         68.3686         68.1373    -71.1659E-03        -2.98439
            6194         68.8160         68.3745    -486.771E-03        -3.00330
            6195         69.2607         68.6127    -890.202E-03        -3.02665
            6196         69.7030         68.8523        -1.28149        -3.05456
            6197         70.1432         69.0940        -1.66064        -3.08707
            6198         70.5816         69.3381        -2.02768        -3.12425
            6199         71.0184         69.5850        -2.38260        -3.16610
            6200         71.4540         69.8352        -2.72538        -3.21263
            6201         71.8887         70.0893        -3.05598        -3.26379
            6202         72.3228         70.3475        -3.37431        -3.31955
            6203         72.7564         70.6103        -3.68029        -3.37982
            6204         73.1899         70.8782        -3.97378        -3.44453
            6205         73.6234         71.1516        -4.25461        -3.51355
            6206         74.0571         71.4308        -4.52257        -3.58676
            6207         74.4911         71.7161        -4.77741        -3.66401
            6208         74.9255         72.0081        -5.01884        -3.74514
            6209         75.3604         72.3070        -5.24650        -3.82996
            6210         75.7957         72.6130        -5.46000        -3.91829
            6211         76.2315         72.9267        -5.65890        -4.00991
            6212         76.6676         73.2481        -5.84267        -4.10459
            6213         77.1040         73.5776        -6.01077        -4.20209
            6214         77.5403         73.9154        -6.16255        -4.30215
            6215         77.9763         74.2617        -6.29733        -4.40450
            6216         78.4118         74.6167        -6.41435        -4.50885
            6217         78.8462         74.9806        -6.51278        -4.61490
            6218         79.2793         75.3534        -6.59170        -4.72232
            6219         79.7103         75.7354        -6.65016        -4.83077
            6220         80.1389         76.1266        -6.68708        -4.93991
            6221         80.5642         76.5269        -6.70133        -5.04935
            6222         80.9856         76.9365        -6.69170        -5.15871
            6223         81.4023         77.3553        -6.65686        -5.26757
            6224         81.8133         77.7831        -6.59542        -5.37550
            6225         82.2178         78.2201        -6.50588        -5.48205
            6226         82.6146         78.6659        -6.38667        -5.58673
            6227         83.0027         79.1205        -6.23608        -5.68905
            6228         83.3808         79.5836        -6.05232        -5.78846
            6229         83.7478         80.0549        -5.83349        -5.88441
            6230         84.1022         80.5341        -5.57757        -5.97631
            6231         84.4428         81.0209        -5.28244        -6.06352
            6232         84.7678         81.5148        -4.94584        -6.14538
            6233         85.0760         82.0154        -4.56539        -6.22120
            6234         85.3655         82.5222        -4.13859        -6.29022
            6235         85.6347         83.0345        -3.66279        -6.35165
            6236         85.8820         83.5516        -3.13520        -6.40465
            6237         86.1055         84.0730        -2.55289        -6.44830
            6238         86.3034         84.5977        -1.91274        -6.48166
            6239         86.4739         85.1249        -1.21152        -6.50369
            6240         86.6152         85.6536    -445.776E-03        -6.51330
            6241         86.7254         86.1828     388.111E-03        -6.50931
            6242         86.8027         86.7113         1.29394        -6.49046
            6243         86.8453         87.2379         2.27574        -6.45539
            6244         86.8517         87.7611         3.33773        -6.40267
            6245         86.8203         88.2796         4.48439        -6.33073
            6246         86.7497         88.7918         5.72043        -6.23791
            6247         86.6388         89.2957         7.05082        -6.12243
            6248         86.4869         89.7896         8.48080        -5.98237
            6249         86.2935         90.2714         10.0159        -5.81567
            6250         86.0587         90.7388         11.6621        -5.62015
            6251         85.7832         91.1894         13.4255        -5.39346
            6252         85.4687         91.6206         15.3126        -5.13310
            6253         85.1176         92.0294         17.3305        -4.83641
            6254         84.7337         92.4128         19.4866        -4.50055
            6255         84.3223         92.7674         21.7885        -4.12252
            6256         83.8904         93.0895         24.2447        -3.69914
            6257         83.4472         93.3753         26.8638        -3.22705
            6258         83.0049         93.6205         29.6551        -2.70272
            6259         82.5783         93.8204         32.6285        -2.12242
            6260         82.1865         93.9702         35.7944        -1.48228
            6261         81.8524         94.0644         39.1638    -778.207E-03
            6262         81.6040         94.0973         42.7488    -5.90532E-03
            6263         53.5596         59.8575         17.9572        -3.56464
            6264         53.9919         60.1505         17.2837        -3.55639
            6265         54.4341         60.4432         16.6113        -3.54934
            6266         54.8854         60.7355         15.9402        -3.54277
            6267         55.3454         61.0274         15.2707        -3.53610
            6268         55.8132         61.3184         14.6033        -3.52881
            6269         56.2879         61.6085         13.9386        -3.52049
            6270         56.7689         61.8971         13.2770        -3.51080
            6271         57.2550         62.1842         12.6194        -3.49953
            6272         57.7455         62.4692         11.9663        -3.48654
            6273         58.2393         62.7520         11.3185        -3.47177
            6274         58.7356         63.0321         10.6768        -3.45526
            6275         59.2335         63.3093         10.0419        -3.43712
            6276         59.7320         63.5834         9.41455        -3.41753
            6277         60.2304         63.8541         8.79535        -3.39674
            6278         60.7279         64.1213         8.18499        -3.37504
            6279         61.2238         64.3848         7.58407        -3.35276
            6280         61.7174         64.6447         6.99314        -3.33029
            6281         62.2083         64.9007         6.41269        -3.30801
            6282         62.6959         65.1531         5.84315        -3.28633
            6283         63.1798         65.4019         5.28492        -3.26569
            6284         63.6598         65.6472         4.73829        -3.24649
            6285         64.1356         65.8892         4.20355        -3.22916
            6286         64.6070         66.1282         3.68089        -3.21409
            6287         65.0740         66.3644         3.17047        -3.20168
            6288         65.5365         66.5981         2.67242        -3.19228
            6289         65.9946         66.8296         2.18681        -3.18624
            6290         66.4484         67.0594         1.71368        -3.18387
            6291         66.8980         67.2878         1.25303        -3.18545
            6292         67.3436         67.5152     804.867E-03        -3.19124
            6293         67.7854         67.7421     369.141E-03        -3.20145
            6294         68.2238         67.9688    -54.1861E-03        -3.21629
            6295         68.6589         68.1960    -465.171E-03        -3.23590
            6296         69.0911         68.4240    -863.870E-03        -3.26043
            6297         69.5208         68.6532        -1.25034        -3.28996
            6298         69.9482         68.8843        -1.62462        -3.32456
            6299         70.3736         69.1175        -1.98677        -3.36429
            6300         70.7975         69.3534        -2.33678        -3.40915
            6301         71.2201         69.5925        -2.67468        -3.45913
            6302         71.6417         69.8351        -3.00043        -3.51419
            6303         72.0626         70.0818        -3.31400        -3.57428
            6304         72.4831         70.3330        -3.61529        -3.63931
            6305         72.9035         70.5890        -3.90421        -3.70918
            6306         73.3238         70.8503        -4.18059        -3.78376
            6307         73.7444         71.1172        -4.44424        -3.86291
            6308         74.1654         71.3902        -4.69494        -3.94646
            6309         74.5868         71.6696        -4.93240        -4.03425
            6310         75.0087         71.9557        -5.15630        -4.12605
            6311         75.4312         72.2489        -5.36626        -4.22167
            6312         75.8542         72.5494        -5.56183        -4.32088
            6313         76.2776         72.8575        -5.74254        -4.42341
            6314         76.7014         73.1735        -5.90782        -4.52900
            6315         77.1251         73.4976        -6.05707        -4.63738
            6316         77.5488         73.8301        -6.18961        -4.74825
            6317         77.9719         74.1710        -6.30470        -4.86128
            6318         78.3941         74.5206        -6.40153        -4.97616
            6319         78.8150         74.8790        -6.47919        -5.09253
            6320         79.2340         75.2463        -6.53675        -5.21002
            6321         79.6506         75.6225        -6.57315        -5.32825
            6322         80.0641         76.0078        -6.58729        -5.44681
            6323         80.4738         76.4021        -6.57795        -5.56529
            6324         80.8788         76.8053        -6.54385        -5.68322
            6325         81.2783         77.2175        -6.48361        -5.80015
            6326         81.6712         77.6385        -6.39577        -5.91557
            6327         82.0566         78.0682        -6.27875        -6.02897
            6328         82.4334         78.5065        -6.13090        -6.13981
            6329         82.8003         78.9530        -5.95045        -6.24751
            6330         83.1561         79.4076        -5.73553        -6.35145
            6331         83.4994         79.8700        -5.48416        -6.45101
            6332         83.8289         80.3397        -5.19424        -6.54550
            6333         84.1430         80.8164        -4.86356        -6.63420
            6334         84.4401         81.2996        -4.48980        -6.71636
            6335         84.7188         81.7889        -4.07047        -6.79118
            6336         84.9772         82.2835        -3.60300        -6.85778
            6337         85.2136         82.7830        -3.08465        -6.91528
            6338         85.4263         83.2865        -2.51254        -6.96268
            6339         85.6135         83.7934        -1.88363        -6.99896
            6340         85.7733         84.3027        -1.19474        -7.02301
            6341         85.9039         84.8136    -442.518E-03        -7.03364
            6342         86.0035         85.3249     376.584E-03        -7.02959
            6343         86.0702         85.8357         1.26628        -7.00950
            6344         86.1023         86.3447         2.23048        -6.97192
            6345         86.0982         86.8505         3.27332        -6.91528
            6346         86.0563         87.3518         4.39916        -6.83791
            6347         85.9753         87.8470         5.61257        -6.73800
            6348         85.8541         88.3344         6.91842        -6.61363
            6349         85.6918         88.8122         8.32180        -6.46274
            6350         85.4881         89.2784         9.82812        -6.28309
            6351         85.2430         89.7307         11.4431        -6.07232
            6352         84.9573         90.1669         13.1728        -5.82788
            6353         84.6324         90.5844         15.0235        -5.54706
            6354         84.2710         90.9804         17.0022        -5.22696
            6355         83.8767         91.3519         19.1159        -4.86452
            6356         83.4547         91.6956         21.3724        -4.45645
            6357         83.0122         92.0080         23.7795        -3.99929
            6358         82.5583         92.2853         26.3461        -3.48938
            6359         82.1049         92.5233         29.0811        -2.92285
            6360         81.6673         92.7175         31.9942        -2.29565
            6361         81.2642         92.8630         35.0955        -1.60354
            6362         80.9189         92.9547         38.3961    -842.028E-03
            6363         80.6593         92.9867         41.9078    -6.41105E-03
            6364         53.5934         59.8269         17.9480        -3.85727
            6365         54.0239         60.1191         17.2761        -3.84888
            6366         54.4646         60.4111         16.6044        -3.84159
            6367         54.9147         60.7029         15.9334        -3.83461
            6368         55.3735         60.9941         15.2634        -3.82728
            6369         55.8401         61.2846         14.5951        -3.81905
            6370         56.3137         61.5738         13.9289        -3.80947
            6371         56.7933         61.8616         13.2657        -3.79819
            6372         57.2779         62.1474         12.6062        -3.78498
            6373         57.7665         62.4310         11.9512        -3.76968
            6374         58.2581         62.7119         11.3015        -3.75227
            6375         58.7518         62.9899         10.6580        -3.73280
            6376         59.2465         63.2645         10.0214        -3.71142
            6377         59.7414         63.5355         9.39256        -3.68834
            6378         60.2355         63.8027         8.77221        -3.66386
            6379         60.7282         64.0659         8.16103        -3.63832
            6380         61.2185         64.3249         7.55969        -3.61210
            6381         61.7060         64.5797         6.96874        -3.58564
            6382         62.1901         64.8303         6.38871        -3.55939
            6383         62.6702         65.0766         5.82004        -3.53381
            6384         63.1461         65.3189         5.26311        -3.50938
            6385         63.6173         65.5572         4.71824        -3.48657
            6386         64.0838         65.7918         4.18568        -3.46583
            6387         64.5453         66.0229         3.66562        -3.44762
            6388         65.0019         66.2507         3.15820        -3.43237
            6389         65.4535         66.4757         2.66351        -3.42046
            6390         65.9002         66.6982         2.18161        -3.41228
            6391         66.3421         66.9185         1.71249        -3.40816
            6392         66.7795         67.1372         1.25614        -3.40840
            6393         67.2125         67.3546     812.518E-03        -3.41329
            6394         67.6415         67.5711     381.547E-03        -3.42305
            6395         68.0667         67.7873    -36.8456E-03        -3.43789
            6396         68.4884         68.0036    -442.748E-03        -3.45797
            6397         68.9071         68.2205    -836.250E-03        -3.48344
            6398         69.3230         68.4385        -1.21744        -3.51439
            6399         69.7365         68.6579        -1.58638        -3.55088
            6400         70.1479         68.8795        -1.94316        -3.59296
            6401         70.5577         69.1035        -2.28782        -3.64064
            6402         70.9660         69.3304        -2.62039        -3.69389
            6403         71.3734         69.5608        -2.94086        -3.75267
            6404         71.7801         69.7950        -3.24923        -3.81691
            6405         72.1863         70.0335        -3.54542        -3.88652
            6406         72.5924         70.2766        -3.82935        -3.96137
            6407         72.9986         70.5249        -4.10089        -4.04134
            6408         73.4050         70.7786        -4.35987        -4.12625
            6409         73.8118         71.0383        -4.60607        -4.21593
            6410         74.2191         71.3041        -4.83924        -4.31019
            6411         74.6271         71.5764        -5.05906        -4.40879
            6412         75.0356         71.8556        -5.26516        -4.51152
            6413         75.4448         72.1420        -5.45714        -4.61811
            6414         75.8544         72.4358        -5.63452        -4.72829
            6415         76.2645         72.7372        -5.79676        -4.84179
            6416         76.6747         73.0465        -5.94327        -4.95828
            6417         77.0848         73.3640        -6.07339        -5.07746
            6418         77.4946         73.6898        -6.18639        -5.19897
            6419         77.9036         74.0239        -6.28148        -5.32247
            6420         78.3113         74.3667        -6.35779        -5.44757
            6421         78.7173         74.7181        -6.41438        -5.57389
            6422         79.1210         75.0783        -6.45022        -5.70099
            6423         79.5216         75.4472        -6.46423        -5.82846
            6424         79.9185         75.8249        -6.45521        -5.95583
            6425         80.3109         76.2114        -6.42191        -6.08262
            6426         80.6978         76.6066        -6.36297        -6.20832
            6427         81.0783         77.0104        -6.27695        -6.33241
            6428         81.4513         77.4227        -6.16231        -6.45432
            6429         81.8158         77.8433        -6.01742        -6.57347
            6430         82.1705         78.2719        -5.84053        -6.68925
            6431         82.5142         78.7085        -5.62983        -6.80100
            6432         82.8455         79.1525        -5.38335        -6.90803
            6433         83.1629         79.6038        -5.09906        -7.00962
            6434         83.4651         80.0619        -4.77476        -7.10500
            6435         83.7504         80.5263        -4.40819        -7.19336
            6436         84.0172         80.9966        -3.99692        -7.27384
            6437         84.2638         81.4721        -3.53841        -7.34551
            6438         84.4885         81.9524        -3.03000        -7.40740
            6439         84.6895         82.4367        -2.46887        -7.45848
            6440         84.8650         82.9242        -1.85205        -7.49764
            6441         85.0133         83.4142        -1.17643        -7.52369
            6442         85.1323         83.9057    -438.739E-03        -7.53538
            6443         85.2203         84.3977     364.471E-03        -7.53134
            6444         85.2756         84.8892         1.23682        -7.51012
            6445         85.2963         85.3791         2.18211        -7.47017
            6446         85.2808         85.8660         3.20438        -7.40983
            6447         85.2276         86.3487         4.30783        -7.32728
            6448         85.1353         86.8255         5.49694        -7.22062
            6449         85.0028         87.2949         6.77641        -7.08777
            6450         84.8294         87.7551         8.15119        -6.92651
            6451         84.6145         88.2043         9.62653        -6.73446
            6452         84.3583         88.6402         11.2080        -6.50907
            6453         84.0616         89.0607         12.9014        -6.24761
            6454         83.7256         89.4633         14.7130        -5.94715
            6455         83.3531         89.8453         16.6494        -5.60458
            6456         82.9477         90.2038         18.7175        -5.21657
            6457         82.5145         90.5357         20.9249        -4.77959
            6458         82.0607         90.8375         23.2793        -4.28988
            6459         81.5953         91.1055         25.7891        -3.74349
            6460         81.1304         91.3356         28.4633        -3.13622
            6461         80.6811         91.5235         31.3112        -2.46366
            6462         80.2663         91.6644         34.3429        -1.72122
            6463         79.9091         91.7533         37.5690    -904.031E-03
            6464         79.6379         91.7843         41.0013    -6.94103E-03
            6465         53.6316         59.7962         17.9389        -4.14908
            6466         54.0605         60.0876         17.2683        -4.14070
            6467         54.4998         60.3791         16.5972        -4.13325
            6468         54.9487         60.6703         15.9261        -4.12587
            6469         55.4063         60.9610         15.2553        -4.11786
            6470         55.8718         61.2508         14.5856        -4.10860
            6471         56.3442         61.5393         13.9177        -4.09761
            6472         56.8225         61.8261         13.2525        -4.08452
            6473         57.3055         62.1107         12.5908        -4.06907
            6474         57.7922         62.3927         11.9335        -4.05114
            6475         58.2815         62.6717         11.2815        -4.03071
            6476         58.7723         62.9473         10.6358        -4.00787
            6477         59.2636         63.2191         9.99725        -3.98278
            6478         59.7545         63.4869         9.36672        -3.95573
            6479         60.2439         63.7502         8.74503        -3.92704
            6480         60.7312         64.0090         8.13292        -3.89713
            6481         61.2155         64.2631         7.53107        -3.86645
            6482         61.6962         64.5124         6.94009        -3.83547
            6483         62.1727         64.7569         6.36052        -3.80472
            6484         62.6446         64.9966         5.79282        -3.77472
            6485         63.1115         65.2317         5.23735        -3.74599
            6486         63.5732         65.4624         4.69444        -3.71908
            6487         64.0294         65.6888         4.16431        -3.69448
            6488         64.4801         65.9113         3.64714        -3.67269
            6489         64.9252         66.1301         3.14305        -3.65417
            6490         65.3648         66.3456         2.65209        -3.63936
            6491         65.7990         66.5582         2.17428        -3.62867
            6492         66.2281         66.7684         1.70959        -3.62245
            6493         66.6521         66.9765         1.25798        -3.62104
            6494         67.0715         67.1829     819.344E-03        -3.62472
            6495         67.4865         67.3883     393.591E-03        -3.63375
            6496         67.8974         67.5931    -19.3949E-03        -3.64833
            6497         68.3047         67.7976    -419.738E-03        -3.66864
            6498         68.7086         68.0026    -807.563E-03        -3.69482
            6499         69.1096         68.2083        -1.18299        -3.72696
            6500         69.5080         68.4154        -1.54613        -3.76513
            6501         69.9043         68.6243        -1.89707        -3.80936
            6502         70.2989         68.8355        -2.23591        -3.85965
            6503         70.6920         69.0495        -2.56269        -3.91599
            6504         71.0840         69.2666        -2.87744        -3.97830
            6505         71.4753         69.4874        -3.18018        -4.04651
            6506         71.8662         69.7123        -3.47085        -4.12051
            6507         72.2569         69.9417        -3.74940        -4.20017
            6508         72.6478         70.1760        -4.01571        -4.28533
            6509         73.0389         70.4156        -4.26965        -4.37582
            6510         73.4305         70.6609        -4.51100        -4.47144
            6511         73.8227         70.9121        -4.73954        -4.57197
            6512         74.2156         71.1697        -4.95496        -4.67717
            6513         74.6091         71.4340        -5.15692        -4.78680
            6514         75.0034         71.7051        -5.34503        -4.90057
            6515         75.3983         71.9835        -5.51883        -5.01820
            6516         75.7936         72.2694        -5.67780        -5.13937
            6517         76.1892         72.5629        -5.82137        -5.26376
            6518         76.5849         72.8643        -5.94888        -5.39103
            6519         76.9802         73.1737        -6.05964        -5.52079
            6520         77.3749         73.4913        -6.15287        -5.65268
            6521         77.7685         73.8173        -6.22772        -5.78629
            6522         78.1604         74.1517        -6.28327        -5.92119
            6523         78.5501         74.4946        -6.31851        -6.05694
            6524         78.9370         74.8460        -6.33238        -6.19307
            6525         79.3201         75.2060        -6.32371        -6.32910
            6526         79.6989         75.5745        -6.29127        -6.46450
            6527         80.0723         75.9514        -6.23372        -6.59875
            6528         80.4393         76.3367        -6.14965        -6.73127
            6529         80.7990         76.7302        -6.03756        -6.86146
            6530         81.1503         77.1319        -5.89583        -6.98871
            6531         81.4918         77.5413        -5.72277        -7.11235
            6532         81.8224         77.9584        -5.51658        -7.23169
            6533         82.1407         78.3829        -5.27535        -7.34600
            6534         82.4452         78.8143        -4.99707        -7.45450
            6535         82.7345         79.2523        -4.67960        -7.55638
            6536         83.0070         79.6965        -4.32072        -7.65077
            6537         83.2610         80.1464        -3.91806        -7.73676
            6538         83.4949         80.6015        -3.46914        -7.81337
            6539         83.7070         81.0611        -2.97135        -7.87956
            6540         83.8954         81.5246        -2.42194        -7.93424
            6541         84.0584         81.9913        -1.81802        -7.97623
            6542         84.1941         82.4605        -1.15657        -8.00427
            6543         84.3007         82.9311    -434.395E-03        -8.01702
            6544         84.3763         83.4024     351.857E-03        -8.01305
            6545         84.4192         83.8732         1.20569        -7.99082
            6546         84.4276         84.3424         2.13082        -7.94867
            6547         84.3998         84.8090         3.13113        -7.88482
            6548         84.3344         85.2715         4.21072        -7.79739
            6549         84.2300         85.7284         5.37390        -7.68431
            6550         84.0855         86.1784         6.62523        -7.54340
            6551         83.9001         86.6197         7.96949        -7.37228
            6552         83.6733         87.0504         9.41177        -7.16842
            6553         83.4052         87.4686         10.9574        -6.92910
            6554         83.0966         87.8721         12.6121        -6.65140
            6555         82.7489         88.2586         14.3819        -6.33219
            6556         82.3646         88.6254         16.2731        -5.96813
            6557         81.9473         88.9699         18.2925        -5.55566
            6558         81.5023         89.2889         20.4474        -5.09099
            6559         81.0366         89.5791         22.7453        -4.57007
            6560         80.5592         89.8370         25.1944        -3.98864
            6561         80.0822         90.0586         27.8033        -3.34220
            6562         79.6207         90.2397         30.5813        -2.62597
            6563         79.1936         90.3756         33.5382        -1.83499
            6564         78.8243         90.4614         36.6843    -963.981E-03
            6565         78.5410         90.4913         40.0313    -7.40274E-03
            6566         53.6749         59.7659         17.9299        -4.44011
            6567         54.1022         60.0567         17.2606        -4.43188
            6568         54.5401         60.3476         16.5899        -4.42437
            6569         54.9879         60.6384         15.9182        -4.41664
            6570         55.4445         60.9285         15.2463        -4.40790
            6571         55.9090         61.2178         14.5749        -4.39750
            6572         56.3803         61.5055         13.9049        -4.38491
            6573         56.8572         61.7914         13.2371        -4.36976
            6574         57.3386         62.0748         12.5727        -4.35177
            6575         57.8233         62.3552         11.9127        -4.33084
            6576         58.3101         62.6322         11.2580        -4.30696
            6577         58.7978         62.9052         10.6098        -4.28025
            6578         59.2854         63.1740         9.96898        -4.25095
            6579         59.7719         63.4381         9.33651        -4.21937
            6580         60.2562         63.6973         8.71328        -4.18592
            6581         60.7376         63.9512         8.10008        -4.15107
            6582         61.2152         64.1999         7.49766        -4.11532
            6583         61.6884         64.4432         6.90664        -4.07925
            6584         62.1567         64.6811         6.32759        -4.04342
            6585         62.6195         64.9136         5.76095        -4.00843
            6586         63.0766         65.1409         5.20712        -3.97488
            6587         63.5277         65.3633         4.66639        -3.94334
            6588         63.9727         65.5808         4.13897        -3.91438
            6589         64.4115         65.7939         3.62501        -3.88854
            6590         64.8441         66.0029         3.12460        -3.86632
            6591         65.2707         66.2082         2.63775        -3.84820
            6592         65.6914         66.4102         2.16446        -3.83461
            6593         66.1065         66.6092         1.70464        -3.82594
            6594         66.5161         66.8059         1.25822        -3.82253
            6595         66.9207         67.0007     825.050E-03        -3.82470
            6596         67.3205         67.1940     404.998E-03        -3.83271
            6597         67.7161         67.3864    -2.09221E-03        -3.84676
            6598         68.1077         67.5785    -396.384E-03        -3.86704
            6599         68.4957         67.7706    -778.041E-03        -3.89369
            6600         68.8807         67.9633        -1.14722        -3.92679
            6601         69.2630         68.1571        -1.50406        -3.96642
            6602         69.6430         68.3525        -1.84870        -4.01260
            6603         70.0212         68.5500        -2.18124        -4.06532
            6604         70.3979         68.7501        -2.50178        -4.12454
            6605         70.7735         68.9531        -2.81037        -4.19019
            6606         71.1484         69.1596        -3.10704        -4.26218
            6607         71.5228         69.3700        -3.39178        -4.34038
            6608         71.8971         69.5848        -3.66454        -4.42464
            6609         72.2716         69.8042        -3.92525        -4.51481
            6610         72.6464         70.0287        -4.17376        -4.61067
            6611         73.0217         70.2587        -4.40992        -4.71202
            6612         73.3977         70.4944        -4.63349        -4.81861
            6613         73.7745         70.7363        -4.84421        -4.93020
            6614         74.1520         70.9846        -5.04175        -5.04651
            6615         74.5303         71.2396        -5.22572        -5.16725
            6616         74.9093         71.5016        -5.39569        -5.29209
            6617         75.2889         71.7708        -5.55116        -5.42072
            6618         75.6689         72.0474        -5.69158        -5.55277
            6619         76.0490         72.3317        -5.81632        -5.68787
            6620         76.4290         72.6237        -5.92469        -5.82565
            6621         76.8084         72.9237        -6.01593        -5.96568
            6622         77.1868         73.2318        -6.08922        -6.10754
            6623         77.5637         73.5480        -6.14366        -6.25077
            6624         77.9385         73.8725        -6.17827        -6.39491
            6625         78.3105         74.2052        -6.19199        -6.53945
            6626         78.6789         74.5462        -6.18369        -6.68388
            6627         79.0431         74.8955        -6.15216        -6.82765
            6628         79.4019         75.2529        -6.09610        -6.97018
            6629         79.7546         75.6185        -6.01412        -7.11088
            6630         80.1001         75.9920        -5.90473        -7.24911
            6631         80.4371         76.3734        -5.76638        -7.38421
            6632         80.7645         76.7624        -5.59739        -7.51548
            6633         81.0811         77.1587        -5.39600        -7.64218
            6634         81.3854         77.5622        -5.16035        -7.76355
            6635         81.6760         77.9724        -4.88846        -7.87875
            6636         81.9515         78.3890        -4.57826        -7.98694
            6637         82.2103         78.8116        -4.22755        -8.08718
            6638         82.4506         79.2397        -3.83404        -8.17852
            6639         82.6709         79.6729        -3.39530        -8.25993
            6640         82.8694         80.1104        -2.90878        -8.33031
            6641         83.0443         80.5517        -2.37182        -8.38849
            6642         83.1939         80.9962        -1.78160        -8.43325
            6643         83.3162         81.4430        -1.13517        -8.46326
            6644         83.4094         81.8913    -429.449E-03        -8.47710
            6645         83.4717         82.3403     338.823E-03        -8.47325
            6646         83.5013         82.7889         1.17304        -8.45010
            6647         83.4966         83.2361         2.07680        -8.40591
            6648         83.4557         83.6808         3.05384        -8.33880
            6649         83.3772         84.1216         4.10814        -8.24676
            6650         83.2599         84.5573         5.24384        -8.12764
            6651         83.1025         84.9864         6.46536        -7.97910
            6652         82.9043         85.4073         7.77728        -7.79866
            6653         82.6647         85.8182         9.18451        -7.58362
            6654         82.3841         86.2174         10.6922        -7.33109
            6655         82.0629         86.6026         12.3058        -7.03797
            6656         81.7027         86.9716         14.0312        -6.70096
            6657         81.3060         87.3222         15.8745        -6.31647
            6658         80.8763         87.6514         17.8421        -5.88073
            6659         80.4189         87.9565         19.9411        -5.38967
            6660         79.9406         88.2343         22.1789        -4.83898
            6661         79.4508         88.4813         24.5634        -4.22409
            6662         78.9612         88.6936         27.1028        -3.54016
            6663         78.4871         88.8673         29.8063        -2.78209
            6664         78.0475         88.9978         32.6834        -1.94452
            6665         77.6657         89.0802         35.7441        -1.02179
            6666         77.3704         89.1091             39.    -7.90338E-03
            6667         53.7236         59.7368         17.9213        -4.73042
            6668         54.1494         60.0270         17.2530        -4.72251
            6669         54.5862         60.3174         16.5823        -4.71504
            6670         55.0330         60.6078         15.9098        -4.70697
            6671         55.4887         60.8976         15.2363        -4.69746
            6672         55.9523         61.1863         14.5627        -4.68579
            6673         56.4226         61.4734         13.8900        -4.67141
            6674         56.8983         61.7583         13.2193        -4.65391
            6675         57.3780         62.0404         12.5517        -4.63303
            6676         57.8606         62.3191         11.8885        -4.60866
            6677         58.3448         62.5940         11.2307        -4.58085
            6678         58.8292         62.8643         10.5795        -4.54976
            6679         59.3128         63.1298         9.93605        -4.51567
            6680         59.7945         63.3900         9.30134        -4.47896
            6681         60.2732         63.6446         8.67634        -4.44012
            6682         60.7480         63.8934         8.06192        -4.39968
            6683         61.2183         64.1361         7.45884        -4.35824
            6684         61.6833         64.3729         6.86778        -4.31642
            6685         62.1424         64.6035         6.28930        -4.27490
            6686         62.5954         64.8282         5.72388        -4.23432
            6687         63.0417         65.0471         5.17188        -4.19535
            6688         63.4813         65.2604         4.63357        -4.15864
            6689         63.9141         65.4683         4.10916        -4.12479
            6690         64.3399         65.6713         3.59876        -4.09440
            6691         64.7590         65.8697         3.10241        -4.06802
            6692         65.1714         66.0638         2.62010        -4.04616
            6693         65.5775         66.2543         2.15177        -4.02927
            6694         65.9774         66.4415         1.69729        -4.01778
            6695         66.3714         66.6259         1.25654        -4.01204
            6696         66.7601         66.8081     829.333E-03        -4.01238
            6697         67.1437         66.9886     415.486E-03        -4.01906
            6698         67.5226         67.1679     14.7999E-03        -4.03232
            6699         67.8974         67.3464    -372.932E-03        -4.05231
            6700         68.2685         67.5249    -747.915E-03        -4.07919
            6701         68.6364         67.7037        -1.11034        -4.11304
            6702         69.0014         67.8834        -1.46039        -4.15391
            6703         69.3640         68.0644        -1.79824        -4.20182
            6704         69.7247         68.2474        -2.12402        -4.25675
            6705         70.0839         68.4327        -2.43786        -4.31866
            6706         70.4420         68.6208        -2.73983        -4.38745
            6707         70.7994         68.8121        -3.03001        -4.46301
            6708         71.1563         69.0072        -3.30839        -4.54521
            6709         71.5131         69.2063        -3.57498        -4.63389
            6710         71.8701         69.4100        -3.82969        -4.72884
            6711         72.2276         69.6185        -4.07243        -4.82987
            6712         72.5856         69.8323        -4.30305        -4.93673
            6713         72.9444         70.0516        -4.52133        -5.04918
            6714         73.3039         70.2768        -4.72704        -5.16693
            6715         73.6644         70.5082        -4.91986        -5.28970
            6716         74.0258         70.7461        -5.09943        -5.41715
            6717         74.3879         70.9907        -5.26533        -5.54897
            6718         74.7508         71.2423        -5.41709        -5.68480
            6719         75.1141         71.5010        -5.55417        -5.82425
            6720         75.4777         71.7671        -5.67595        -5.96694
            6721         75.8413         72.0407        -5.78179        -6.11246
            6722         76.2044         72.3220        -5.87092        -6.26037
            6723         76.5667         72.6111        -5.94256        -6.41021
            6724         76.9275         72.9081        -5.99582        -6.56150
            6725         77.2863         73.2130        -6.02975        -6.71375
            6726         77.6425         73.5259        -6.04332        -6.86643
            6727         77.9953         73.8468        -6.03542        -7.01898
            6728         78.3438         74.1756        -6.00486        -7.17084
            6729         78.6873         74.5124        -5.95037        -7.32139
            6730         79.0246         74.8569        -5.87060        -7.46999
            6731         79.3548         75.2092        -5.76409        -7.61599
            6732         79.6766         75.5691        -5.62931        -7.75868
            6733         79.9890         75.9362        -5.46463        -7.89733
            6734         80.2906         76.3105        -5.26833        -8.03115
            6735         80.5800         76.6917        -5.03857        -8.15933
            6736         80.8559         77.0794        -4.77345        -8.28102
            6737         81.1166         77.4732        -4.47092        -8.39530
            6738         81.3607         77.8728        -4.12886        -8.50121
            6739         81.5865         78.2778        -3.74501        -8.59773
            6740         81.7922         78.6876        -3.31703        -8.68377
            6741         81.9763         79.1016        -2.84242        -8.75821
            6742         82.1368         79.5194        -2.31859        -8.81981
            6743         82.2719         79.9401        -1.74282        -8.86726
            6744         82.3799         80.3632        -1.11224        -8.89920
            6745         82.4589         80.7877    -423.868E-03        -8.91413
            6746         82.5070         81.2129     325.451E-03        -8.91047
            6747         82.5225         81.6379         1.13900        -8.88652
            6748         82.5037         82.0616         2.02023        -8.84044
            6749         82.4489         82.4829         2.97277        -8.77029
            6750         82.3565         82.9007         4.00042        -8.67395
            6751         82.2254         83.3136         5.10718        -8.54915
            6752         82.0543         83.7204         6.29728        -8.39346
            6753         81.8425         84.1195         7.57513        -8.20424
            6754         81.5895         84.5093         8.94543        -7.97866
            6755         81.2954         84.8879         10.4131        -7.71369
            6756         80.9610         85.2535         11.9835        -7.40605
            6757         80.5877         85.6040         13.6620        -7.05222
            6758         80.1779         85.9370         15.4546        -6.64845
            6759         79.7352         86.2499         17.3676        -6.19069
            6760         79.2648         86.5401         19.4076        -5.67464
            6761         78.7736         86.8044         21.5818        -5.09573
            6762         78.2709         87.0396         23.8978        -4.44906
            6763         77.7684         87.2421         26.3637        -3.72948
            6764         77.2815         87.4078         28.9882        -2.93152
            6765         76.8290         87.5324         31.7805        -2.04946
            6766         76.4347         87.6112         34.7506        -1.07724
            6767         76.1271         87.6387         37.9096    -8.39580E-03
            6768         53.7784         59.7094         17.9131        -5.02009
            6769         54.2029         59.9991         17.2457        -5.01268
            6770         54.6388         60.2892         16.5747        -5.00536
            6771         55.0848         60.5793         15.9009        -4.99699
            6772         55.5399         60.8688         15.2253        -4.98664
            6773         56.0027         61.1572         14.5489        -4.97356
            6774         56.4721         61.4437         13.8730        -4.95715
            6775         56.9465         61.7277         13.1987        -4.93698
            6776         57.4247         62.0085         12.5274        -4.91280
            6777         57.9051         62.2855         11.8603        -4.88453
            6778         58.3864         62.5580         11.1989        -4.85225
            6779         58.8673         62.8255         10.5443        -4.81617
            6780         59.3465         63.0874         9.89783        -4.77665
            6781         59.8229         63.3434         9.26057        -4.73414
            6782         60.2955         63.5930         8.63357        -4.68921
            6783         60.7632         63.8361         8.01776        -4.64249
            6784         61.2254         64.0725         7.41396        -4.59465
            6785         61.6814         64.3021         6.82286        -4.54641
            6786         62.1306         64.5249         6.24504        -4.49851
            6787         62.5726         64.7410         5.68098        -4.45170
            6788         63.0073         64.9507         5.13102        -4.40669
            6789         63.4343         65.1542         4.59543        -4.36421
            6790         63.8537         65.3517         4.07437        -4.32493
            6791         64.2656         65.5438         3.56790        -4.28948
            6792         64.6699         65.7307         3.07604        -4.25846
            6793         65.0671         65.9130         2.59871        -4.23241
            6794         65.4573         66.0911         2.13582        -4.21182
            6795         65.8409         66.2656         1.68718        -4.19713
            6796         66.2182         66.4369         1.25261        -4.18871
            6797         66.5897         66.6057     831.889E-03        -4.18690
            6798         66.9559         66.7724     424.773E-03        -4.19197
            6799         67.3172         66.9377     31.0174E-03        -4.20415
            6800         67.6740         67.1020    -349.630E-03        -4.22361
            6801         68.0270         67.2659    -717.419E-03        -4.25048
            6802         68.3766         67.4300        -1.07258        -4.28484
            6803         68.7232         67.5947        -1.41535        -4.32674
            6804         69.0674         67.7606        -1.74591        -4.37617
            6805         69.4095         67.9281        -2.06445        -4.43312
            6806         69.7502         68.0978        -2.37112        -4.49750
            6807         70.0897         68.2701        -2.66604        -4.56923
            6808         70.4284         68.4455        -2.94929        -4.64816
            6809         70.7668         68.6243        -3.22091        -4.73416
            6810         71.1051         68.8071        -3.48091        -4.82703
            6811         71.4437         68.9941        -3.72926        -4.92657
            6812         71.7827         69.1857        -3.96587        -5.03254
            6813         72.1224         69.3824        -4.19060        -5.14469
            6814         72.4629         69.5844        -4.40328        -5.26276
            6815         72.8043         69.7921        -4.60367        -5.38643
            6816         73.1467         70.0057        -4.79150        -5.51540
            6817         73.4901         70.2255        -4.96641        -5.64933
            6818         73.8344         70.4518        -5.12801        -5.78786
            6819         74.1795         70.6847        -5.27584        -5.93062
            6820         74.5252         70.9246        -5.40939        -6.07721
            6821         74.8713         71.1715        -5.52806        -6.22721
            6822         75.2175         71.4257        -5.63121        -6.38019
            6823         75.5633         71.6872        -5.71813        -6.53569
            6824         75.9084         71.9563        -5.78802        -6.69322
            6825         76.2522         72.2329        -5.84004        -6.85228
            6826         76.5942         72.5172        -5.87326        -7.01235
            6827         76.9335         72.8091        -5.88667        -7.17286
            6828         77.2697         73.1087        -5.87918        -7.33324
            6829         77.6016         73.4160        -5.84965        -7.49289
            6830         77.9286         73.7309        -5.79682        -7.65116
            6831         78.2496         74.0533        -5.71938        -7.80738
            6832         78.5636         74.3831        -5.61590        -7.96086
            6833         78.8693         74.7201        -5.48489        -8.11086
            6834         79.1657         75.0643        -5.32475        -8.25661
            6835         79.4514         75.4152        -5.13380        -8.39729
            6836         79.7250         75.7728        -4.91026        -8.53204
            6837         79.9851         76.1366        -4.65226        -8.65997
            6838         80.2302         76.5063        -4.35781        -8.78012
            6839         80.4587         76.8817        -4.02484        -8.89147
            6840         80.6689         77.2621        -3.65116        -8.99298
            6841         80.8593         77.6471        -3.23447        -9.08351
            6842         81.0279         78.0363        -2.77238        -9.16185
            6843         81.1731         78.4290        -2.26235        -9.22674
            6844         81.2930         78.8247        -1.70174        -9.27683
            6845         81.3857         79.2225        -1.08780        -9.31065
            6846         81.4496         79.6219    -417.625E-03        -9.32668
            6847         81.4826         80.0219     311.818E-03        -9.32325
            6848         81.4832         80.4217         1.10369        -9.29859
            6849         81.4494         80.8204         1.96131        -9.25080
            6850         81.3798         81.2170         2.88817        -9.17783
            6851         81.2727         81.6102         3.88790        -9.07749
            6852         81.1270         81.9990         4.96434        -8.94741
            6853         80.9414         82.3821         6.12152        -8.78503
            6854         80.7152         82.7579         7.36367        -8.58762
            6855         80.4480         83.1252         8.69526        -8.35220
            6856         80.1399         83.4820         10.1210        -8.07558
            6857         79.7915         83.8267         11.6459        -7.75433
            6858         79.4044         84.1572         13.2753        -7.38475
            6859         78.9809         84.4714         15.0147        -6.96287
            6860         78.5247         84.7669         16.8703        -6.48444
            6861         78.0409         85.0411         18.8483        -5.94491
            6862         77.5364         85.2910         20.9556        -5.33941
            6863         77.0204         85.5136         23.1995        -4.66276
            6864         76.5049         85.7054         25.5878        -3.90948
            6865         76.0048         85.8626         28.1290        -3.07374
            6866         75.5395         85.9809         30.8319        -2.14945
            6867         75.1327         86.0557         33.7062        -1.13010
            6868         74.8131         86.0820         36.7627    -8.83517E-03
            6869         53.8398         59.6845         17.9058        -5.30923
            6870         54.2634         59.9739         17.2387        -5.30253
            6871         54.6985         60.2638         16.5670        -5.29547
            6872         55.1441         60.5538         15.8914        -5.28682
            6873         55.5987         60.8432         15.2131        -5.27557
            6874         56.0611         61.1313         14.5333        -5.26091
            6875         56.5297         61.4173         13.8535        -5.24219
            6876         57.0030         61.7005         13.1749        -5.21899
            6877         57.4795         61.9800         12.4991        -5.19105
            6878         57.9577         62.2552         11.8277        -5.15834
            6879         58.4360         62.5253         11.1620        -5.12098
            6880         58.9131         62.7897         10.5035        -5.07925
            6881         59.3876         63.0478         9.85361        -5.03359
            6882         59.8582         63.2992         9.21346        -4.98454
            6883         60.3240         63.5434         8.58421        -4.93276
            6884         60.7839         63.7803         7.96686        -4.87898
            6885         61.2373         64.0097         7.36227        -4.82398
            6886         61.6833         64.2315         6.77115        -4.76857
            6887         62.1216         64.4458         6.19411        -4.71358
            6888         62.5518         64.6527         5.63160        -4.65983
            6889         62.9737         64.8524         5.08395        -4.60814
            6890         63.3870         65.0453         4.55139        -4.55928
            6891         63.7920         65.2316         4.03404        -4.51398
            6892         64.1886         65.4119         3.53193        -4.47294
            6893         64.5771         65.5865         3.04501        -4.43679
            6894         64.9578         65.7560         2.57316        -4.40610
            6895         65.3310         65.9209         2.11621        -4.38140
            6896         65.6970         66.0818         1.67394        -4.36313
            6897         66.0565         66.2392         1.24610        -4.35169
            6898         66.4097         66.3937     832.413E-03        -4.34741
            6899         66.7573         66.5458     432.577E-03        -4.35059
            6900         67.0997         66.6962     46.2996E-03        -4.36142
            6901         67.4375         66.8455    -326.722E-03        -4.38009
            6902         67.7712         66.9940    -686.783E-03        -4.40672
            6903         68.1014         67.1425        -1.03416        -4.44137
            6904         68.4285         67.2915        -1.36913        -4.48408
            6905         68.7532         67.4413        -1.69191        -4.53483
            6906         69.0757         67.5927        -2.00273        -4.59358
            6907         69.3967         67.7460        -2.30178        -4.66024
            6908         69.7166         67.9017        -2.58919        -4.73470
            6909         70.0358         68.0602        -2.86509        -4.81680
            6910         70.3546         68.2221        -3.12954        -4.90638
            6911         70.6734         68.3876        -3.38257        -5.00323
            6912         70.9924         68.5571        -3.62418        -5.10713
            6913         71.3120         68.7311        -3.85429        -5.21782
            6914         71.6324         68.9098        -4.07281        -5.33502
            6915         71.9536         69.0937        -4.27958        -5.45846
            6916         72.2759         69.2829        -4.47437        -5.58780
            6917         72.5993         69.4778        -4.65693        -5.72272
            6918         72.9237         69.6786        -4.82693        -5.86285
            6919         73.2492         69.8857        -4.98400        -6.00782
            6920         73.5755         70.0991        -5.12770        -6.15723
            6921         73.9026         70.3191        -5.25753        -6.31066
            6922         74.2302         70.5459        -5.37292        -6.46768
            6923         74.5580         70.7797        -5.47326        -6.62782
            6924         74.8856         71.0205        -5.55784        -6.79059
            6925         75.2125         71.2684        -5.62590        -6.95551
            6926         75.5383         71.5237        -5.67662        -7.12202
            6927         75.8624         71.7862        -5.70909        -7.28959
            6928         76.1840         72.0561        -5.72233        -7.45762
            6929         76.5024         72.3333        -5.71529        -7.62552
            6930         76.8169         72.6179        -5.68684        -7.79264
            6931         77.1265         72.9097        -5.63576        -7.95831
            6932         77.4302         73.2088        -5.56075        -8.12185
            6933         77.7270         73.5149        -5.46046        -8.28251
            6934         78.0157         73.8280        -5.33340        -8.43952
            6935         78.2951         74.1478        -5.17802        -8.59208
            6936         78.5639         74.4742        -4.99269        -8.73933
            6937         78.8207         74.8069        -4.77567        -8.88038
            6938         79.0642         75.1455        -4.52513        -9.01429
            6939         79.2927         75.4899        -4.23915        -9.14006
            6940         79.5046         75.8395        -3.91570        -9.25664
            6941         79.6985         76.1941        -3.55266        -9.36293
            6942         79.8724         76.5531        -3.14780        -9.45775
            6943         80.0248         76.9160        -2.69879        -9.53986
            6944         80.1537         77.2823        -2.20319        -9.60792
            6945         80.2574         77.6515        -1.65844        -9.66053
            6946         80.3341         78.0227        -1.06187        -9.69620
            6947         80.3819         78.3954    -410.699E-03        -9.71331
            6948         80.3991         78.7689     297.994E-03        -9.71015
            6949         80.3837         79.1421         1.06725        -9.68488
            6950         80.3342         79.5144         1.90024        -9.63553
            6951         80.2489         79.8847         2.80031        -9.55998
            6952         80.1263         80.2520         3.77093        -9.45595
            6953         79.9651         80.6152         4.81576        -9.32097
            6954         79.7642         80.9731         5.93862        -9.15241
            6955         79.5229         81.3243         7.14354        -8.94739
            6956         79.2408         81.6676         8.43475        -8.70283
            6957         78.9179         82.0012         9.81675        -8.41540
            6958         78.5550         82.3237         11.2942        -8.08151
            6959         78.1535         82.6330         12.8723        -7.69729
            6960         77.7159         82.9272         14.5562        -7.25857
            6961         77.2457         83.2041         16.3517        -6.76089
            6962         76.7481         83.4612         18.2648        -6.19944
            6963         76.2299         83.6957         20.3020        -5.56910
            6964         75.7004         83.9049         22.4704        -4.86439
            6965         75.1715         84.0852         24.7774        -4.07950
            6966         74.6585         84.2332         27.2310        -3.20824
            6967         74.1804         84.3447         29.8399        -2.24412
            6968         73.7612         84.4155         32.6134        -1.18026
            6969         73.4299         84.4403         35.5620    -9.30512E-03
            6970         53.9087         59.6631         17.8995        -5.59799
            6971         54.3316         59.9522         17.2324        -5.59221
            6972         54.7664         60.2422         16.5593        -5.58554
            6973         55.2117         60.5322         15.8813        -5.57664
            6974         55.6662         60.8217         15.1996        -5.56441
            6975         56.1283         61.1096         14.5157        -5.54796
            6976         56.5964         61.3953         13.8311        -5.52663
            6977         57.0687         61.6777         13.1474        -5.49998
            6978         57.5437         61.9560         12.4665        -5.46777
            6979         58.0195         62.2293         11.7900        -5.43001
            6980         58.4946         62.4968         11.1194        -5.38688
            6981         58.9676         62.7579         10.4565        -5.33875
            6982         59.4368         63.0119         9.80264        -5.28615
            6983         59.9012         63.2583         9.15924        -5.22974
            6984         60.3595         63.4967         8.52748        -5.17027
            6985         60.8109         63.7268         7.90843        -5.10860
            6986         61.2545         63.9486         7.30299        -5.04561
            6987         61.6898         64.1620         6.71191        -4.98222
            6988         62.1161         64.3670         6.13578        -4.91936
            6989         62.5334         64.5638         5.57504        -4.85796
            6990         62.9413         64.7528         5.03000        -4.79889
            6991         63.3398         64.9342         4.50083        -4.74300
            6992         63.7291         65.1084         3.98762        -4.69110
            6993         64.1093         65.2760         3.49033        -4.64392
            6994         64.4807         65.4375         3.00886        -4.60214
            6995         64.8437         65.5934         2.54302        -4.56636
            6996         65.1986         65.7442         2.09257        -4.53713
            6997         65.5460         65.8906         1.65723        -4.51491
            6998         65.8862         66.0332         1.23669        -4.50011
            6999         66.2200         66.1725     830.606E-03        -4.49307
            7000         66.5478         66.3092     438.625E-03        -4.49406
            7001         66.8702         66.4440     60.3928E-03        -4.50329
            7002         67.1878         66.5772    -304.445E-03        -4.52094
            7003         67.5012         66.7096    -656.233E-03        -4.54709
            7004         67.8109         66.8418    -995.296E-03        -4.58182
            7005         68.1175         66.9741        -1.32194        -4.62513
            7006         68.4215         67.1072        -1.63645        -4.67700
            7007         68.7234         67.2416        -1.93907        -4.73735
            7008         69.0238         67.3777        -2.23003        -4.80609
            7009         69.3230         67.5161        -2.50949        -4.88307
            7010         69.6216         67.6570        -2.77761        -4.96814
            7011         69.9198         67.8010        -3.03448        -5.06109
            7012         70.2180         67.9485        -3.28017        -5.16169
            7013         70.5167         68.0998        -3.51467        -5.26972
            7014         70.8159         68.2553        -3.73796        -5.38488
            7015         71.1159         68.4153        -3.94994        -5.50690
            7016         71.4170         68.5802        -4.15048        -5.63545
            7017         71.7191         68.7501        -4.33939        -5.77019
            7018         72.0225         68.9255        -4.51642        -5.91078
            7019         72.3270         69.1065        -4.68128        -6.05683
            7020         72.6326         69.2934        -4.83360        -6.20794
            7021         72.9393         69.4864        -4.97296        -6.36370
            7022         73.2468         69.6857        -5.09889        -6.52367
            7023         73.5549         69.8914        -5.21085        -6.68738
            7024         73.8633         70.1038        -5.30824        -6.85436
            7025         74.1717         70.3228        -5.39037        -7.02409
            7026         74.4795         70.5487        -5.45653        -7.19605
            7027         74.7863         70.7815        -5.50588        -7.36968
            7028         75.0915         71.0213        -5.53757        -7.54441
            7029         75.3943         71.2681        -5.55064        -7.71963
            7030         75.6942         71.5218        -5.54406        -7.89470
            7031         75.9902         71.7826        -5.51674        -8.06896
            7032         76.2814         72.0503        -5.46749        -8.24170
            7033         76.5668         72.3248        -5.39505        -8.41222
            7034         76.8454         72.6061        -5.29807        -8.57972
            7035         77.1161         72.8940        -5.17515        -8.74343
            7036         77.3776         73.1883        -5.02475        -8.90248
            7037         77.6286         73.4889        -4.84529        -9.05601
            7038         77.8677         73.7954        -4.63508        -9.20306
            7039         78.0936         74.1077        -4.39233        -9.34268
            7040         78.3045         74.4253        -4.11518        -9.47382
            7041         78.4991         74.7480        -3.80166        -9.59539
            7042         78.6755         75.0754        -3.44972        -9.70624
            7043         78.8322         75.4070        -3.05718        -9.80516
            7044         78.9673         75.7423        -2.62181        -9.89085
            7045         79.0792         76.0809        -2.14123        -9.96195
            7046         79.1658         76.4221        -1.61298        -10.0170
            7047         79.2255         76.7654        -1.03449        -10.0544
            7048         79.2565         77.1101    -403.081E-03        -10.0726
            7049         79.2568         77.4555     284.045E-03        -10.0697
            7050         79.2247         77.8008         1.02980        -10.0440
            7051         79.1586         78.1452         1.83721        -9.99321
            7052         79.0567         78.4879         2.70946        -9.91530
            7053         78.9178         78.8278         3.64986        -9.80789
            7054         78.7404         79.1639         4.66187        -9.66842
            7055         78.5235         79.4952         5.74911        -9.49416
            7056         78.2663         79.8205         6.91538        -9.28215
            7057         77.9685         80.1384         8.16469        -9.02918
            7058         77.6302         80.4475         9.50124        -8.73180
            7059         77.2521         80.7463         10.9295        -8.38627
            7060         76.8357         81.0331         12.4542        -7.98856
            7061         76.3834         81.3061         14.0804        -7.53433
            7062         75.8988         81.5632         15.8133        -7.01888
            7063         75.3870         81.8021         17.6588        -6.43719
            7064         74.8549         82.0203         19.6231        -5.78386
            7065         74.3118         82.2150         21.7126        -5.05313
            7066         73.7696         82.3832         23.9346        -4.23884
            7067         73.2435         82.5214         26.2967        -3.33447
            7068         72.7529         82.6257         28.8072        -2.33312
            7069         72.3217         82.6920         31.4750        -1.22747
            7070         71.9793         82.7152         34.3104    -9.72765E-03
            7071         53.9858         59.6459         17.8945        -5.88654
            7072         54.4084         59.9351         17.2269        -5.88192
            7073         54.8432         60.2253         16.5518        -5.87578
            7074         55.2888         60.5156         15.8706        -5.86665
            7075         55.7435         60.8053         15.1846        -5.85333
            7076         56.2056         61.0934         14.4957        -5.83487
            7077         56.6734         61.3788         13.8054        -5.81058
            7078         57.1449         61.6605         13.1159        -5.77999
            7079         57.6183         61.9375         12.4289        -5.74292
            7080         58.0917         62.2089         11.7464        -5.69941
            7081         58.5634         62.4737         11.0703        -5.64975
            7082         59.0318         62.7312         10.4023        -5.59438
            7083         59.4954         62.9807         9.74406        -5.53396
            7084         59.9529         63.2217         9.09701        -5.46928
            7085         60.4031         63.4537         8.46248        -5.40121
            7086         60.8450         63.6765         7.84159        -5.33073
            7087         61.2779         63.8900         7.23529        -5.25885
            7088         61.7013         64.0942         6.64432        -5.18662
            7089         62.1146         64.2891         6.06928        -5.11508
            7090         62.5177         64.4750         5.51058        -5.04524
            7091         62.9105         64.6523         4.96849        -4.97807
            7092         63.2930         64.8214         4.44313        -4.91450
            7093         63.6653         64.9827         3.93453        -4.85538
            7094         64.0278         65.1367         3.44258        -4.80151
            7095         64.3809         65.2840         2.96710        -4.75360
            7096         64.7248         65.4253         2.50784        -4.71229
            7097         65.0602         65.5612         2.06449        -4.67813
            7098         65.3876         65.6922         1.63669        -4.65160
            7099         65.7076         65.8191         1.22406        -4.63312
            7100         66.0206         65.9424     826.184E-03        -4.62301
            7101         66.3275         66.0629     442.655E-03        -4.62155
            7102         66.6288         66.1811     73.0555E-03        -4.62895
            7103         66.9250         66.2977    -283.024E-03        -4.64533
            7104         67.2169         66.4131    -625.981E-03        -4.67081
            7105         67.5051         66.5281    -956.188E-03        -4.70541
            7106         67.7901         66.6431        -1.27400        -4.74913
            7107         68.0724         66.7587        -1.57973        -4.80191
            7108         68.3527         66.8754        -1.87367        -4.86368
            7109         68.6314         66.9936        -2.15607        -4.93429
            7110         68.9090         67.1138        -2.42715        -5.01360
            7111         69.1860         67.2364        -2.68708        -5.10141
            7112         69.4627         67.3619        -2.93597        -5.19751
            7113         69.7395         67.4906        -3.17393        -5.30165
            7114         70.0167         67.6230        -3.40098        -5.41356
            7115         70.2946         67.7592        -3.61710        -5.53296
            7116         70.5734         67.8997        -3.82223        -5.65952
            7117         70.8533         68.0448        -4.01626        -5.79292
            7118         71.1344         68.1947        -4.19901        -5.93278
            7119         71.4167         68.3497        -4.37026        -6.07875
            7120         71.7004         68.5101        -4.52974        -6.23041
            7121         71.9852         68.6761        -4.67709        -6.38736
            7122         72.2713         68.8478        -4.81193        -6.54915
            7123         72.5582         69.0254        -4.93380        -6.71532
            7124         72.8459         69.2092        -5.04218        -6.88539
            7125         73.1340         69.3992        -5.13649        -7.05886
            7126         73.4221         69.5956        -5.21608        -7.23520
            7127         73.7099         69.7984        -5.28024        -7.41385
            7128         73.9967         70.0078        -5.32818        -7.59425
            7129         74.2821         70.2238        -5.35906        -7.77578
            7130         74.5652         70.4464        -5.37195        -7.95782
            7131         74.8455         70.6757        -5.36586        -8.13970
            7132         75.1219         70.9115        -5.33971        -8.32073
            7133         75.3938         71.1539        -5.29236        -8.50020
            7134         75.6600         71.4028        -5.22259        -8.67733
            7135         75.9195         71.6581        -5.12909        -8.85135
            7136         76.1712         71.9197        -5.01046        -9.02140
            7137         76.4138         72.1873        -4.86525        -9.18663
            7138         76.6460         72.4608        -4.69190        -9.34610
            7139         76.8665         72.7400        -4.48877        -9.49886
            7140         77.0738         73.0246        -4.25413        -9.64389
            7141         77.2663         73.3143        -3.98616        -9.78012
            7142         77.4424         73.6088        -3.68297        -9.90641
            7143         77.6006         73.9077        -3.34255        -10.0216
            7144         77.7391         74.2105        -2.96281        -10.1244
            7145         77.8561         74.5170        -2.54159        -10.2135
            7146         77.9499         74.8264        -2.07659        -10.2875
            7147         78.0186         75.1384        -1.56545        -10.3448
            7148         78.0605         75.4524        -1.00570        -10.3840
            7149         78.0736         75.7677    -394.769E-03        -10.4032
            7150         78.0562         76.0837     270.025E-03        -10.4007
            7151         78.0066         76.3996     991.452E-03        -10.3744
            7152         77.9230         76.7148         1.77240        -10.3224
            7153         77.8038         77.0284         2.61589        -10.2424
            7154         77.6477         77.3395         3.52504        -10.1319
            7155         77.4533         77.6472         4.50313        -9.98833
            7156         77.2196         77.9505         5.55356        -9.80888
            7157         76.9458         78.2483         6.67989        -9.59049
            7158         76.6317         78.5394         7.88587        -9.32987
            7159         76.2773         78.8226         9.17545        -9.02342
            7160         75.8834         79.0965         10.5528        -8.66730
            7161         75.4515         79.3595         12.0223        -8.25730
            7162         74.9841         79.6100         13.5886        -7.78892
            7163         74.4847         79.8461         15.2568        -7.25727
            7164         73.9585         80.0657         17.0322        -6.65708
            7165         73.4124         80.2665         18.9206        -5.98272
            7166         72.8556         80.4459         20.9283        -5.22811
            7167         72.3001         80.6011         23.0618        -4.38680
            7168         71.7613         80.7288         25.3286        -3.45187
            7169         71.2584         80.8254         27.7364        -2.41606
            7170         70.8158         80.8869         30.2939        -1.27158
            7171         70.4631         80.9086         33.0109    -10.1646E-03
            7172         54.0720         59.6340         17.8910        -6.17511
            7173         54.4948         59.9234         17.2223        -6.17191
            7174         54.9302         60.2141         16.5445        -6.16645
            7175         55.3764         60.5051         15.8592        -6.15710
            7176         55.8318         60.7953         15.1680        -6.14257
            7177         56.2943         61.0836         14.4730        -6.12183
            7178         56.7620         61.3690         13.7761        -6.09415
            7179         57.2328         61.6501         13.0796        -6.05908
            7180         57.7046         61.9259         12.3856        -6.01648
            7181         58.1756         62.1953         11.6964        -5.96645
            7182         58.6436         62.4572         11.0139        -5.90937
            7183         59.1071         62.7108         10.3401        -5.84583
            7184         59.5645         62.9555         9.67692        -5.77661
            7185         60.0143         63.1905         9.02583        -5.70264
            7186         60.4555         63.4155         8.38826        -5.62495
            7187         60.8870         63.6303         7.76540        -5.54467
            7188         61.3082         63.8347         7.15823        -5.46295
            7189         61.7185         64.0288         6.56750        -5.38096
            7190         62.1176         64.2128         5.99378        -5.29986
            7191         62.5053         64.3870         5.43745        -5.22078
            7192         62.8816         64.5517         4.89872        -5.14477
            7193         63.2467         64.7074         4.37766        -5.07283
            7194         63.6008         64.8547         3.87419        -5.00589
            7195         63.9443         64.9942         3.38815        -4.94478
            7196         64.2776         65.1265         2.91928        -4.89026
            7197         64.6012         65.2523         2.46723        -4.84297
            7198         64.9158         65.3722         2.03161        -4.80349
            7199         65.2220         65.4870         1.61199        -4.77231
            7200         65.5203         65.5973         1.20791        -4.74984
            7201         65.8115         65.7038     818.879E-03        -4.73640
            7202         66.0963         65.8072     444.423E-03        -4.73225
            7203         66.3753         65.9081     84.0630E-03        -4.73758
            7204         66.6491         66.0071    -262.670E-03        -4.75251
            7205         66.9185         66.1049    -596.228E-03        -4.77710
            7206         67.1841         66.2020    -917.031E-03        -4.81139
            7207         67.4464         66.2989        -1.22548        -4.85533
            7208         67.7061         66.3963        -1.52193        -4.90884
            7209         67.9638         66.4945        -1.80671        -4.97183
            7210         68.2199         66.5941        -2.08011        -5.04413
            7211         68.4749         66.6955        -2.34237        -5.12556
            7212         68.7294         66.7991        -2.59369        -5.21591
            7213         68.9836         66.9054        -2.83423        -5.31494
            7214         69.2380         67.0147        -3.06410        -5.42238
            7215         69.4929         67.1273        -3.28334        -5.53794
            7216         69.7486         67.2436        -3.49198        -5.66131
            7217         70.0052         67.3639        -3.68996        -5.79215
            7218         70.2630         67.4885        -3.87719        -5.93011
            7219         70.5221         67.6176        -4.05353        -6.07480
            7220         70.7826         67.7515        -4.21876        -6.22584
            7221         71.0445         67.8905        -4.37263        -6.38280
            7222         71.3076         68.0346        -4.51482        -6.54525
            7223         71.5721         68.1842        -4.64496        -6.71272
            7224         71.8375         68.3394        -4.76261        -6.88475
            7225         72.1038         68.5003        -4.86726        -7.06082
            7226         72.3707         68.6672        -4.95838        -7.24042
            7227         72.6376         68.8400        -5.03532        -7.42299
            7228         72.9043         69.0188        -5.09741        -7.60796
            7229         73.1702         69.2038        -5.14388        -7.79473
            7230         73.4347         69.3951        -5.17392        -7.98268
            7231         73.6972         69.5925        -5.18663        -8.17115
            7232         73.9568         69.7962        -5.18104        -8.35946
            7233         74.2129         70.0061        -5.15612        -8.54690
            7234         74.4644         70.2222        -5.11075        -8.73270
            7235         74.7104         70.4444        -5.04375        -8.91608
            7236         74.9498         70.6725        -4.95384        -9.09623
            7237         75.1815         70.9066        -4.83969        -9.27228
            7238         75.4043         71.1464        -4.69986        -9.44332
            7239         75.6167         71.3917        -4.53284        -9.60841
            7240         75.8176         71.6423        -4.33705        -9.76654
            7241         76.0053         71.8980        -4.11081        -9.91667
            7242         76.1784         72.1586        -3.85236        -10.0577
            7243         76.3353         72.4235        -3.55986        -10.1884
            7244         76.4742         72.6927        -3.23138        -10.3077
            7245         76.5936         72.9655        -2.86490        -10.4142
            7246         76.6916         73.2417        -2.45831        -10.5065
            7247         76.7665         73.5208        -2.00943        -10.5832
            7248         76.8163         73.8022        -1.51597        -10.6427
            7249         76.8394         74.0855    -975.572E-03        -10.6835
            7250         76.8339         74.3701    -385.773E-03        -10.7037
            7251         76.7980         74.6553     255.981E-03        -10.7015
            7252         76.7299         74.9405     952.326E-03        -10.6749
            7253         76.6280         75.2251         1.70600        -10.6218
            7254         76.4907         75.5082         2.51986        -10.5398
            7255         76.3166         75.7891         3.39683        -10.4265
            7256         76.1044         76.0669         4.33999        -10.2793
            7257         75.8531         76.3408         5.35252        -10.0952
            7258         75.5620         76.6098         6.43774        -9.87103
            7259         75.2309         76.8728         7.59913        -9.60350
            7260         74.8598         77.1287         8.84034        -9.28890
            7261         74.4496         77.3763         10.1652        -8.92325
            7262         74.0018         77.6142         11.5778        -8.50221
            7263         73.5188         77.8409         13.0825        -8.02111
            7264         73.0043         78.0547         14.6839        -7.47487
            7265         72.4635         78.2538         16.3869        -6.85803
            7266         71.9032         78.4362         18.1969        -6.16468
            7267         71.3328         78.5993         20.1197        -5.38847
            7268         70.7643         78.7407         22.1616        -4.52262
            7269         70.2130         78.8573         24.3294        -3.55986
            7270         69.6985         78.9457         26.6306        -2.49250
            7271         69.2452         79.0021         29.0733        -1.31235
            7272         68.8831         79.0220         31.6668    -10.5919E-03
            7273         54.1683         59.6284         17.8895        -6.46394
            7274         54.5919         59.9185         17.2189        -6.46246
            7275         55.0283         60.2100         16.5375        -6.45783
            7276         55.4758         60.5018         15.8471        -6.44828
            7277         55.9323         60.7929         15.1496        -6.43239
            7278         56.3957         61.0818         14.4473        -6.40905
            7279         56.8636         61.3673         13.7426        -6.37751
            7280         57.3339         61.6479         13.0380        -6.33733
            7281         57.8043         61.9225         12.3359        -6.28841
            7282         58.2725         62.1898         11.6389        -6.23096
            7283         58.7366         62.4486         10.9491        -6.16549
            7284         59.1947         62.6980         10.2689        -6.09272
            7285         59.6452         62.9373         9.60017        -6.01360
            7286         60.0866         63.1658         8.94462        -5.92923
            7287         60.5178         63.3831         8.30377        -5.84082
            7288         60.9379         63.5891         7.67884        -5.74966
            7289         61.3461         63.7836         7.07085        -5.65706
            7290         61.7421         63.9668         6.48054        -5.56433
            7291         62.1256         64.1388         5.90844        -5.47277
            7292         62.4965         64.3002         5.35487        -5.38361
            7293         62.8550         64.4513         4.81998        -5.29800
            7294         63.2012         64.5927         4.30375        -5.21701
            7295         63.5356         64.7250         3.80602        -5.14164
            7296         63.8586         64.8489         3.32654        -5.07275
            7297         64.1708         64.9652         2.86493        -5.01113
            7298         64.4728         65.0745         2.42077        -4.95745
            7299         64.7653         65.1776         1.99358        -4.91230
            7300         65.0489         65.2752         1.58282        -4.87616
            7301         65.3245         65.3680         1.18796        -4.84942
            7302         65.5926         65.4568     808.445E-03        -4.83241
            7303         65.8541         65.5423     443.709E-03        -4.82535
            7304         66.1097         65.6251     93.2132E-03        -4.82841
            7305         66.3600         65.7059    -243.573E-03        -4.84169
            7306         66.6059         65.7852    -567.154E-03        -4.86524
            7307         66.8478         65.8637    -878.003E-03        -4.89904
            7308         67.0866         65.9419        -1.17656        -4.94303
            7309         67.3227         66.0204        -1.46324        -4.99711
            7310         67.5568         66.0995        -1.73839        -5.06114
            7311         67.7894         66.1798        -2.00234        -5.13493
            7312         68.0210         66.2618        -2.25536        -5.21829
            7313         68.2520         66.3458        -2.49768        -5.31097
            7314         68.4829         66.4322        -2.72949        -5.41271
            7315         68.7140         66.5214        -2.95091        -5.52321
            7316         68.9457         66.6137        -3.16202        -5.64217
            7317         69.1783         66.7094        -3.36286        -5.76924
            7318         69.4119         66.8088        -3.55341        -5.90408
            7319         69.6468         66.9122        -3.73358        -6.04630
            7320         69.8830         67.0198        -3.90325        -6.19551
            7321         70.1207         67.1319        -4.06223        -6.35129
            7322         70.3599         67.2487        -4.21029        -6.51321
            7323         70.6005         67.3703        -4.34713        -6.68081
            7324         70.8424         67.4970        -4.47239        -6.85361
            7325         71.0854         67.6289        -4.58566        -7.03112
            7326         71.3294         67.7662        -4.68647        -7.21281
            7327         71.5740         67.9090        -4.77427        -7.39814
            7328         71.8188         68.0573        -4.84848        -7.58655
            7329         72.0635         68.2113        -4.90842        -7.77743
            7330         72.3075         68.3710        -4.95338        -7.97018
            7331         72.5502         68.5366        -4.98255        -8.16414
            7332         72.7910         68.7079        -4.99507        -8.35864
            7333         73.0291         68.8850        -4.99001        -8.55297
            7334         73.2636         69.0679        -4.96636        -8.74639
            7335         73.4938         69.2566        -4.92304        -8.93812
            7336         73.7186         69.4510        -4.85890        -9.12736
            7337         73.9369         69.6510        -4.77272        -9.31326
            7338         74.1477         69.8564        -4.66319        -9.49491
            7339         74.3496         70.0672        -4.52892        -9.67140
            7340         74.5413         70.2831        -4.36846        -9.84174
            7341         74.7216         70.5040        -4.18026        -10.0049
            7342         74.8888         70.7297        -3.96270        -10.1598
            7343         75.0415         70.9598        -3.71409        -10.3053
            7344         75.1781         71.1940        -3.43263        -10.4402
            7345         75.2969         71.4321        -3.11646        -10.5633
            7346         75.3963         71.6738        -2.76365        -10.6732
            7347         75.4743         71.9185        -2.37216        -10.7685
            7348         75.5293         72.1658        -1.93988        -10.8477
            7349         75.5595         72.4154        -1.46464        -10.9093
            7350         75.5629         72.6667    -944.167E-03        -10.9516
            7351         75.5379         72.9192    -376.113E-03        -10.9727
            7352         75.4826         73.1723     241.950E-03        -10.9709
            7353         75.3952         73.4254     912.518E-03        -10.9440
            7354         75.2742         73.6780         1.63818        -10.8899
            7355         75.1179         73.9293         2.42161        -10.8062
            7356         74.9250         74.1786         3.26556        -10.6905
            7357         74.6942         74.4252         4.17289        -10.5399
            7358         74.4246         74.6683         5.14656        -10.3516
            7359         74.1156         74.9071         6.18963        -10.1224
            7360         73.7667         75.1405         7.30530        -9.84871
            7361         73.3784         75.3678         8.49691        -9.52687
            7362         72.9513         75.5877         9.76798        -9.15278
            7363         72.4870         75.7991         11.1222        -8.72198
            7364         71.9881         76.0007         12.5636        -8.22963
            7365         71.4583         76.1911         14.0962        -7.67050
            7366         70.9027         76.3686         15.7248        -7.03891
            7367         70.3283         76.5314         17.4540        -6.32872
            7368         69.7444         76.6773         19.2894        -5.53330
            7369         69.1631         76.8040         21.2366        -4.64554
            7370         68.5999         76.9088         23.3021        -3.65782
            7371         68.0745         76.9884         25.4928        -2.56204
            7372         67.6115         77.0393         27.8164        -1.34951
            7373         67.2413         77.0574         30.2818    -10.9602E-03
            7374         54.2759         59.6305         17.8903        -6.75335
            7375         54.7009         59.9215         17.2170        -6.75390
            7376         55.1391         60.2141         16.5309        -6.75029
            7377         55.5884         60.5073         15.8341        -6.74053
            7378         56.0466         60.7995         15.1290        -6.72309
            7379         56.5113         61.0893         14.4181        -6.69678
            7380         56.9799         61.3751         13.7043        -6.66081
            7381         57.4499         61.6554         12.9902        -6.61478
            7382         57.9187         61.9288         12.2788        -6.55865
            7383         58.3841         62.1938         11.5729        -6.49277
            7384         58.8438         62.4492         10.8750        -6.41778
            7385         59.2959         62.6940         10.1875        -6.33460
            7386         59.7387         62.9274         9.51264        -6.24436
            7387         60.1708         63.1487         8.85222        -6.14837
            7388         60.5909         63.3576         8.20786        -6.04803
            7389         60.9983         63.5539         7.58082        -5.94482
            7390         61.3923         63.7375         6.97211        -5.84024
            7391         61.7726         63.9087         6.38247        -5.73575
            7392         62.1391         64.0678         5.81236        -5.63277
            7393         62.4917         64.2152         5.26203        -5.53267
            7394         62.8308         64.3516         4.73154        -5.43669
            7395         63.1567         64.4776         4.22077        -5.34597
            7396         63.4698         64.5938         3.72947        -5.26156
            7397         63.7709         64.7011         3.25724        -5.18438
            7398         64.0606         64.8003         2.80363        -5.11522
            7399         64.3396         64.8921         2.36811        -5.05478
            7400         64.6086         64.9774         1.95007        -5.00363
            7401         64.8684         65.0569         1.54891        -4.96224
            7402         65.1199         65.1315         1.16399        -4.93101
            7403         65.3638         65.2018     794.673E-03        -4.91021
            7404         65.6009         65.2686     440.324E-03        -4.90006
            7405         65.8319         65.3325     100.332E-03        -4.90069
            7406         66.0578         65.3943    -225.895E-03        -4.91218
            7407         66.2790         65.4545    -538.919E-03        -4.93452
            7408         66.4964         65.5138    -839.264E-03        -4.96769
            7409         66.7106         65.5726        -1.12742        -5.01158
            7410         66.9223         65.6315        -1.40382        -5.06607
            7411         67.1319         65.6910        -1.66888        -5.13097
            7412         67.3401         65.7514        -1.92294        -5.20609
            7413         67.5474         65.8134        -2.16632        -5.29118
            7414         67.7542         65.8771        -2.39926        -5.38598
            7415         67.9610         65.9431        -2.62197        -5.49020
            7416         68.1680         66.0116        -2.83461        -5.60353
            7417         68.3757         66.0829        -3.03728        -5.72562
            7418         68.5843         66.1574        -3.23004        -5.85612
            7419         68.7941         66.2353        -3.41287        -5.99466
            7420         69.0051         66.3169        -3.58573        -6.14084
            7421         69.2177         66.4024        -3.74850        -6.29423
            7422         69.4317         66.4920        -3.90103        -6.45442
            7423         69.6473         66.5859        -4.04308        -6.62094
            7424         69.8644         66.6843        -4.17439        -6.79331
            7425         70.0829         66.7874        -4.29461        -6.97105
            7426         70.3026         66.8953        -4.40336        -7.15364
            7427         70.5234         67.0081        -4.50019        -7.34054
            7428         70.7448         67.1260        -4.58459        -7.53120
            7429         70.9666         67.2491        -4.65597        -7.72501
            7430         71.1883         67.3773        -4.71371        -7.92138
            7431         71.4093         67.5109        -4.75710        -8.11967
            7432         71.6293         67.6498        -4.78537        -8.31921
            7433         71.8474         67.7940        -4.79770        -8.51930
            7434         72.0629         67.9437        -4.79318        -8.71921
            7435         72.2750         68.0986        -4.77084        -8.91819
            7436         72.4828         68.2589        -4.72964        -9.11543
            7437         72.6854         68.4244        -4.66846        -9.31010
            7438         72.8816         68.5951        -4.58612        -9.50132
            7439         73.0704         68.7708        -4.48135        -9.68819
            7440         73.2504         68.9515        -4.35282        -9.86973
            7441         73.4205         69.1369        -4.19911        -10.0449
            7442         73.5791         69.3269        -4.01874        -10.2128
            7443         73.7249         69.5213        -3.81012        -10.3721
            7444         73.8562         69.7198        -3.57163        -10.5218
            7445         73.9716         69.9221        -3.30155        -10.6605
            7446         74.0693         70.1280        -2.99806        -10.7871
            7447         74.1477         70.3371        -2.65931        -10.9002
            7448         74.2048         70.5491        -2.28334        -10.9983
            7449         74.2391         70.7635        -1.86813        -11.0798
            7450         74.2486         70.9799        -1.41160        -11.1433
            7451         74.2315         71.1979    -911.570E-03        -11.1870
            7452         74.1861         71.4170    -365.821E-03        -11.2090
            7453         74.1105         71.6367     227.956E-03        -11.2075
            7454         74.0030         71.8564     872.117E-03        -11.1804
            7455         73.8620         72.0757         1.56910        -11.1254
            7456         73.6859         72.2938         2.32140        -11.0402
            7457         73.4735         72.5102         3.13158        -10.9223
            7458         73.2234         72.7242         4.00230        -10.7688
            7459         72.9348         72.9351         4.93626        -10.5768
            7460         72.6070         73.1423         5.93627        -10.3431
            7461         72.2399         73.3448         7.00523        -10.0641
            7462         71.8336         73.5420         8.14618        -9.73596
            7463         71.3891         73.7329         9.36227        -9.35454
            7464         70.9080         73.9165         10.6568        -8.91527
            7465         70.3929         74.0918         12.0334        -8.41320
            7466         69.8475         74.2574         13.4958        -7.84293
            7467         69.2770         74.4121         15.0479        -7.19858
            7468         68.6886         74.5542         16.6944        -6.47379
            7469         68.0915         74.6819         18.4398        -5.66166
            7470         67.4979         74.7930         20.2897        -4.75477
            7471         66.9234         74.8852         22.2497        -3.74512
            7472         66.3880         74.9555         24.3264        -2.62421
            7473         65.9165         75.0007         26.5268        -1.38290
            7474         65.5396         75.0168         28.8595    -11.3500E-03
            7475         54.3960         59.6415         17.8938        -7.04370
            7476         54.8231         59.9338         17.2167        -7.04664
            7477         55.2639         60.2281         16.5247        -7.04421
            7478         55.7158         60.5229         15.8203        -7.03424
            7479         56.1764         60.8167         15.1061        -7.01502
            7480         56.6430         61.1077         14.3850        -6.98530
            7481         57.1125         61.3941         13.6604        -6.94424
            7482         57.5824         61.6742         12.9354        -6.89150
            7483         58.0497         61.9463         12.2134        -6.82715
            7484         58.5120         62.2089         11.4973        -6.75166
            7485         58.9669         62.4606         10.7902        -6.66589
            7486         59.4123         62.7003         10.0946        -6.57096
            7487         59.8465         62.9271         9.41303        -6.46824
            7488         60.2681         63.1405         8.74736        -6.35927
            7489         60.6760         63.3400         8.09929        -6.24568
            7490         61.0693         63.5256         7.47015        -6.12917
            7491         61.4475         63.6972         6.86091        -6.01143
            7492         61.8106         63.8553         6.27227        -5.89409
            7493         62.1583         64.0002         5.70462        -5.77873
            7494         62.4910         64.1326         5.15811        -5.66681
            7495         62.8091         64.2530         4.63268        -5.55969
            7496         63.1130         64.3624         4.12810        -5.45859
            7497         63.4034         64.4614         3.64397        -5.36458
            7498         63.6810         64.5510         3.17980        -5.27862
            7499         63.9467         64.6320         2.73500        -5.20152
            7500         64.2012         64.7054         2.30890        -5.13397
            7501         64.4454         64.7719         1.90082        -5.07654
            7502         64.6801         64.8324         1.51002        -5.02968
            7503         64.9063         64.8878         1.13579        -4.99375
            7504         65.1248         64.9388     777.389E-03        -4.96901
            7505         65.3364         64.9861     434.113E-03        -4.95563
            7506         65.5420         65.0305     105.278E-03        -4.95370
            7507         65.7423         65.0726    -209.773E-03        -4.96327
            7508         65.9380         65.1131    -511.656E-03        -4.98430
            7509         66.1300         65.1525    -800.948E-03        -5.01672
            7510         66.3188         65.1913        -1.07818        -5.06038
            7511         66.5051         65.2301        -1.34383        -5.11513
            7512         66.6895         65.2694        -1.59835        -5.18076
            7513         66.8725         65.3095        -1.84210        -5.25703
            7514         67.0547         65.3508        -2.07544        -5.34367
            7515         67.2365         65.3938        -2.29863        -5.44039
            7516         67.4183         65.4388        -2.51191        -5.54686
            7517         67.6005         65.4861        -2.71546        -5.66276
            7518         67.7834         65.5359        -2.90940        -5.78772
            7519         67.9673         65.5887        -3.09379        -5.92137
            7520         68.1524         65.6445        -3.26867        -6.06330
            7521         68.3389         65.7037        -3.43398        -6.21310
            7522         68.5269         65.7665        -3.58964        -6.37034
            7523         68.7165         65.8330        -3.73550        -6.53456
            7524         68.9077         65.9034        -3.87137        -6.70529
            7525         69.1004         65.9779        -3.99698        -6.88205
            7526         69.2946         66.0567        -4.11202        -7.06432
            7527         69.4901         66.1399        -4.21613        -7.25157
            7528         69.6866         66.2275        -4.30887        -7.44325
            7529         69.8839         66.3198        -4.38975        -7.63878
            7530         70.0817         66.4168        -4.45823        -7.83756
            7531         70.2794         66.5185        -4.51370        -8.03896
            7532         70.4767         66.6250        -4.55548        -8.24233
            7533         70.6728         66.7364        -4.58284        -8.44698
            7534         70.8672         66.8526        -4.59497        -8.65219
            7535         71.0591         66.9738        -4.59101        -8.85723
            7536         71.2477         67.0998        -4.57002        -9.06130
            7537         71.4322         67.2307        -4.53099        -9.26360
            7538         71.6115         67.3663        -4.47286        -9.46325
            7539         71.7846         67.5067        -4.39446        -9.65937
            7540         71.9503         67.6516        -4.29460        -9.85101
            7541         72.1075         67.8011        -4.17196        -10.0372
            7542         72.2548         67.9549        -4.02519        -10.2169
            7543         72.3908         68.1129        -3.85285        -10.3890
            7544         72.5141         68.2748        -3.65343        -10.5524
            7545         72.6231         68.4406        -3.42534        -10.7059
            7546         72.7163         68.6098        -3.16692        -10.8482
            7547         72.7919         68.7822        -2.87644        -10.9780
            7548         72.8483         68.9576        -2.55211        -11.0939
            7549         72.8837         69.1356        -2.19206        -11.1946
            7550         72.8963         69.3157        -1.79435        -11.2783
            7551         72.8842         69.4978        -1.35697        -11.3435
            7552         72.8457         69.6812    -877.874E-03        -11.3884
            7553         72.7790         69.8657    -354.940E-03        -11.4113
            7554         72.6823         70.0506     214.012E-03        -11.4101
            7555         72.5538         70.2357     831.202E-03        -11.3827
            7556         72.3921         70.4203         1.49891        -11.3270
            7557         72.1954         70.6039         2.21946        -11.2405
            7558         71.9626         70.7860         2.99523        -11.1206
            7559         71.6924         70.9660         3.82863        -10.9646
            7560         71.3841         71.1435         4.72216        -10.7695
            7561         71.0369         71.3176         5.67834        -10.5319
            7562         70.6508         71.4879         6.69977        -10.2483
            7563         70.2261         71.6537         7.78916        -9.91480
            7564         69.7638         71.8142         8.94928        -9.52717
            7565         69.2654         71.9687         10.1831        -9.08077
            7566         68.7338         72.1162         11.4937        -8.57053
            7567         68.1727         72.2559         12.8843        -7.99091
            7568         67.5873         72.3865         14.3586        -7.33586
            7569         66.9850         72.5068         15.9203        -6.59880
            7570          66.375         72.6151         17.5738        -5.77258
            7571         65.7697         72.7098         19.3238        -4.84947
            7572         65.1848         72.7887         21.1756        -3.82110
            7573         64.6404         72.8491         23.1349        -2.67856
            7574         64.1618         72.8881         25.2085        -1.41223
            7575         63.7800         72.9021         27.4040    -11.7080E-03
            7576         54.5300         59.6629         17.9005        -7.33541
            7577         54.9602         59.9570         17.2184        -7.34113
            7578         55.4044         60.2534         16.5192        -7.34009
            7579         55.8599         60.5505         15.8054        -7.32987
            7580         56.3236         60.8463         15.0803        -7.30860
            7581         56.7926         61.1389         14.3473        -7.27492
            7582         57.2636         61.4262         13.6102        -7.22800
            7583         57.7335         61.7062         12.8727        -7.16754
            7584         58.1992         61.9770         12.1384        -7.09377
            7585         58.6581         62.2369         11.4108        -7.00734
            7586         59.1075         62.4844         10.6934        -6.90934
            7587         59.5454         62.7184         9.98888        -6.80115
            7588         59.9700         62.9379         9.29991        -6.68444
            7589         60.3798         63.1424         8.62862        -6.56100
            7590         60.7739         63.3314         7.97673        -6.43273
            7591         61.1515         63.5051         7.34557        -6.30157
            7592         61.5123         63.6636         6.73610        -6.16943
            7593         61.8563         63.8072         6.14891        -6.03812
            7594         62.1836         63.9367         5.58430        -5.90938
            7595         62.4946         64.0526         5.04230        -5.78478
            7596         62.7899         64.1558         4.52270        -5.66578
            7597         63.0701         64.2473         4.02513        -5.55365
            7598         63.3361         64.3279         3.54904        -5.44951
            7599         63.5887         64.3986         3.09380        -5.35435
            7600         63.8288         64.4604         2.65867        -5.26896
            7601         64.0574         64.5142         2.24288        -5.19403
            7602         64.2755         64.5610         1.84559        -5.13010
            7603         64.4839         64.6017         1.46597        -5.07760
            7604         64.6836         64.6370         1.10321        -5.03684
            7605         64.8755         64.6679     756.469E-03        -5.00805
            7606         65.0606         64.6951     424.969E-03        -4.99134
            7607         65.2397         64.7193     107.951E-03        -4.98678
            7608         65.4135         64.7411    -195.303E-03        -4.99435
            7609         65.5829         64.7613    -485.468E-03        -5.01399
            7610         65.7485         64.7802    -763.166E-03        -5.04556
            7611         65.9112         64.7986        -1.02897        -5.08889
            7612         66.0714         64.8168        -1.28341        -5.14379
            7613         66.2298         64.8353        -1.52695        -5.21000
            7614         66.3869         64.8545        -1.76000        -5.28726
            7615         66.5433         64.8749        -1.98292        -5.37526
            7616         66.6993         64.8967        -2.19602        -5.47369
            7617         66.8555         64.9202        -2.39956        -5.58220
            7618         67.0121         64.9458        -2.59372        -5.70042
            7619         67.1695         64.9737        -2.77865        -5.82797
            7620         67.3279         65.0042        -2.95443        -5.96445
            7621         67.4876         65.0375        -3.12111        -6.10945
            7622         67.6488         65.0738        -3.27866        -6.26254
            7623         67.8115         65.1133        -3.42702        -6.42324
            7624         67.9758         65.1561        -3.56604        -6.59112
            7625         68.1418         65.2025        -3.69556        -6.76566
            7626         68.3093         65.2525        -3.81533        -6.94638
            7627         68.4783         65.3063        -3.92506        -7.13274
            7628         68.6487         65.3641        -4.02440        -7.32420
            7629         68.8202         65.4259        -4.11295        -7.52020
            7630         68.9925         65.4918        -4.19023        -7.72013
            7631         69.1652         65.5619        -4.25574        -7.92339
            7632         69.3380         65.6363        -4.30888        -8.12934
            7633         69.5104         65.7150        -4.34901        -8.33729
            7634         69.6817         65.7980        -4.37543        -8.54656
            7635         69.8514         65.8854        -4.38736        -8.75641
            7636         70.0187         65.9772        -4.38397        -8.96608
            7637         70.1828         66.0733        -4.36436        -9.17476
            7638         70.3428         66.1738        -4.32756        -9.38163
            7639         70.4978         66.2785        -4.27254        -9.58579
            7640         70.6467         66.3876        -4.19819        -9.78634
            7641         70.7884         66.5007        -4.10334        -9.98231
            7642         70.9216         66.6179        -3.98675        -10.1727
            7643         71.0451         66.7390        -3.84709        -10.3564
            7644         71.1575         66.8638        -3.68298        -10.5324
            7645         71.2573         66.9922        -3.49297        -10.6995
            7646         71.3429         67.1240        -3.27553        -10.8564
            7647         71.4129         67.2589        -3.02906        -11.0019
            7648         71.4654         67.3967        -2.75191        -11.1347
            7649         71.4989         67.5372        -2.44233        -11.2532
            7650         71.5115         67.6799        -2.09856        -11.3561
            7651         71.5014         67.8247        -1.71872        -11.4418
            7652         71.4669         67.9711        -1.30091        -11.5085
            7653         71.4061         68.1187    -843.185E-03        -11.5546
            7654         71.3172         68.2672    -343.524E-03        -11.5782
            7655         71.1985         68.4162     200.123E-03        -11.5773
            7656         71.0483         68.5653     789.841E-03        -11.5497
            7657         70.8649         68.7140         1.42775        -11.4933
            7658         70.6469         68.8618         2.11601        -11.4057
            7659         70.3929         69.0083         2.85681        -11.2842
            7660         70.1020         69.1531         3.65233        -11.1260
            7661         69.7731         69.2957         4.50482        -10.9282
            7662         69.4060         69.4355         5.41654        -10.6873
            7663         69.0003         69.5722         6.38978        -10.3999
            7664         68.5566         69.7052         7.42688        -10.0620
            7665         68.0759         69.8339         8.53027        -9.66932
            7666         67.5600         69.9579         9.70244        -9.21714
            7667         67.0115         70.0764         10.9460        -8.70030
            7668         66.4345         70.1887         12.2638        -8.11317
            7669         65.8344         70.2940         13.6589        -7.44954
            7670         65.2183         70.3913         15.1344        -6.70264
            7671         64.5959         70.4793         16.6942        -5.86506
            7672         63.9796         70.5566         18.3422        -4.92878
            7673         63.3852         70.6213         20.0831        -3.88508
            7674         62.8332         70.6713         21.9221        -2.72460
            7675         62.3491         70.7038         23.8652        -1.43723
            7676         61.9644         70.7155         25.9196    -12.0261E-03
            7677         54.6796         59.6964         17.9108        -7.62896
            7678         55.1139         59.9929         17.2225        -7.63789
            7679         55.5626         60.2920         16.5142        -7.63846
            7680         56.0226         60.5918         15.7893        -7.62793
            7681         56.4903         60.8902         15.0513        -7.60426
            7682         56.9624         61.1848         14.3044        -7.56599
            7683         57.4353         61.4733         13.5527        -7.51228
            7684         57.9054         61.7533         12.8006        -7.44293
            7685         58.3694         62.0227         12.0524        -7.35834
            7686         58.8244         62.2796         11.3119        -7.25942
            7687         59.2676         62.5225         10.5829        -7.14754
            7688         59.6969         62.7500         9.86860        -7.02441
            7689         60.1105         62.9612         9.17169        -6.89200
            7690         60.5070         63.1556         8.49447        -6.75245
            7691         60.8856         63.3330         7.83873        -6.60796
            7692         61.2457         63.4934         7.20576        -6.46072
            7693         61.5872         63.6372         6.59646        -6.31288
            7694         61.9102         63.7650         6.01131        -6.16646
            7695         62.2151         63.8775         5.45047        -6.02334
            7696         62.5025         63.9755         4.91380        -5.88522
            7697         62.7731         64.0602         4.40093        -5.75362
            7698         63.0278         64.1324         3.91131        -5.62988
            7699         63.2676         64.1933         3.44423        -5.51516
            7700         63.4936         64.2439         2.99889        -5.41042
            7701         63.7066         64.2854         2.57440        -5.31647
            7702         63.9079         64.3186         2.16983        -5.23396
            7703         64.0984         64.3447         1.78423        -5.16339
            7704         64.2792         64.3646         1.41665        -5.10515
            7705         64.4513         64.3792         1.06616        -5.05950
            7706         64.6157         64.3893     731.843E-03        -5.02660
            7707         64.7733         64.3956     412.831E-03        -5.00654
            7708         64.9249         64.3990     108.295E-03        -4.99931
            7709         65.0714         64.4000    -182.547E-03        -5.00485
            7710         65.2136         64.3992    -460.422E-03        -5.02304
            7711         65.3522         64.3973    -726.002E-03        -5.05371
            7712         65.4879         64.3947    -979.900E-03        -5.09664
            7713         65.6213         64.3919        -1.22268        -5.15158
            7714         65.7531         64.3893        -1.45483        -5.21826
            7715         65.8836         64.3873        -1.67679        -5.29636
            7716         66.0135         64.3862        -1.88896        -5.38555
            7717         66.1432         64.3864        -2.09165        -5.48548
            7718         66.2731         64.3881        -2.28515        -5.59578
            7719         66.4035         64.3917        -2.46965        -5.71606
            7720         66.5348         64.3972        -2.64533        -5.84591
            7721         66.6671         64.4050        -2.81228        -5.98492
            7722         66.8007         64.4153        -2.97056        -6.13265
            7723         66.9358         64.4283        -3.12016        -6.28865
            7724         67.0725         64.4440        -3.26103        -6.45244
            7725         67.2108         64.4627        -3.39306        -6.62355
            7726         67.3507         64.4844        -3.51608        -6.80148
            7727         67.4923         64.5094        -3.62988        -6.98571
            7728         67.6353         64.5377        -3.73417        -7.17569
            7729         67.7797         64.5695        -3.82864        -7.37088
            7730         67.9252         64.6048        -3.91291        -7.57070
            7731         68.0715         64.6437        -3.98652        -7.77454
            7732         68.2183         64.6862        -4.04898        -7.98177
            7733         68.3652         64.7325        -4.09975        -8.19173
            7734         68.5117         64.7825        -4.13819        -8.40375
            7735         68.6572         64.8364        -4.16365        -8.61712
            7736         68.8011         64.8941        -4.17537        -8.83108
            7737         68.9427         64.9556        -4.17256        -9.04485
            7738         69.0812         65.0209        -4.15436        -9.25763
            7739         69.2157         65.0901        -4.11984        -9.46855
            7740         69.3453         65.1630        -4.06800        -9.67672
            7741         69.4689         65.2397        -3.99778        -9.88121
            7742         69.5854         65.3200        -3.90806        -10.0810
            7743         69.6936         65.4038        -3.79763        -10.2751
            7744         69.7922         65.4911        -3.66524        -10.4625
            7745         69.8798         65.5817        -3.50954        -10.6419
            7746         69.9550         65.6754        -3.32914        -10.8123
            7747         70.0162         65.7721        -3.12258        -10.9723
            7748         70.0619         65.8716        -2.88831        -11.1206
            7749         70.0904         65.9736        -2.62475        -11.2560
            7750         70.0999         66.0779        -2.33024        -11.3768
            7751         70.0888         66.1843        -2.00306        -11.4818
            7752         70.0551         66.2924        -1.64145        -11.5691
            7753         69.9972         66.4019        -1.24359        -11.6372
            7754         69.9132         66.5125    -807.616E-03        -11.6843
            7755         69.8013         66.6239    -331.638E-03        -11.7085
            7756         69.6597         66.7357     186.282E-03        -11.7078
            7757         69.4868         66.8475     748.091E-03        -11.6801
            7758         69.2810         66.9590         1.35576        -11.6232
            7759         69.0408         67.0697         2.01128        -11.5346
            7760         68.7650         67.1794         2.71663        -11.4117
            7761         68.4525         67.2876         3.47381        -11.2517
            7762         68.1026         67.3940         4.28479        -11.0516
            7763         67.7147         67.4982         5.15156        -10.8081
            7764         67.2889         67.6000         6.07609        -10.5177
            7765         66.8257         67.6988         7.06039        -10.1763
            7766         66.3261         67.7945         8.10645        -9.77963
            7767         65.7922         67.8866         9.21636        -9.32301
            7768         65.2268         67.9747         10.3923        -8.80119
            7769         64.6339         68.0584         11.6364        -8.20843
            7770         64.0190         68.1372         12.9512        -7.53840
            7771         63.3896         68.2102         14.3393        -6.78415
            7772         62.7553         68.2768         15.8038        -5.93806
            7773         62.1287         68.3356         17.3480        -4.99180
            7774         61.5260         68.3854         18.9759        -3.93631
            7775         60.9678         68.4242         20.6919        -2.76180
            7776         60.4801         68.4497         22.5014        -1.45767
            7777         60.0948         68.4591         24.4108    -12.3371E-03
            7778         54.8465         59.7439         17.9253        -7.92493
            7779         55.2863         60.0434         17.2291        -7.93756
            7780         55.7407         60.3459         16.5100        -7.93995
            7781         56.2062         60.6492         15.7717        -7.92904
            7782         56.6790         60.9507         15.0185        -7.90254
            7783         57.1550         61.2478         14.2552        -7.85889
            7784         57.6301         61.5377         13.4867        -7.79728
            7785         58.1006         61.8178         12.7180        -7.71764
            7786         58.5626         62.0856         11.9539        -7.62061
            7787         59.0130         62.3391         11.1989        -7.50740
            7788         59.4491         62.5766         10.4571        -7.37975
            7789         59.8685         62.7966         9.73202        -7.23976
            7790         60.2695         62.9984         9.02661        -7.08978
            7791         60.6509         63.1814         8.34326        -6.93233
            7792         61.0121         63.3456         7.68375        -6.76995
            7793         61.3526         63.4912         7.04933        -6.60512
            7794         61.6726         63.6188         6.44077        -6.44025
            7795         61.9724         63.7290         5.85841        -6.27756
            7796         62.2528         63.8229         5.30222        -6.11908
            7797         62.5144         63.9016         4.77186        -5.96662
            7798         62.7584         63.9660         4.26676        -5.82178
            7799         62.9857         64.0176         3.78617        -5.68594
            7800         63.1975         64.0574         3.32918        -5.56025
            7801         63.3951         64.0867         2.89480        -5.44567
            7802         63.5795         64.1067         2.48197        -5.34298
            7803         63.7521         64.1184         2.08962        -5.25277
            7804         63.9138         64.1229         1.71666        -5.17551
            7805         64.0658         64.1212         1.36201        -5.11151
            7806         64.2092         64.1142         1.02462        -5.06097
            7807         64.3450         64.1027     703.508E-03        -5.02400
            7808         64.4741         64.0876     397.700E-03        -5.00061
            7809         64.5975         64.0696     106.305E-03        -4.99074
            7810         64.7160         64.0493    -171.519E-03        -4.99427
            7811         64.8303         64.0273    -436.551E-03        -5.01101
            7812         64.9412         64.0041    -689.505E-03        -5.04075
            7813         65.0493         63.9802    -931.034E-03        -5.08323
            7814         65.1553         63.9560        -1.16173        -5.13814
            7815         65.2598         63.9319        -1.38211        -5.20517
            7816         65.3633         63.9084        -1.59265        -5.28396
            7817         65.4662         63.8856        -1.79374        -5.37417
            7818         65.5690         63.8639        -1.98574        -5.47540
            7819         65.6720         63.8435        -2.16893        -5.58726
            7820         65.7757         63.8246        -2.34354        -5.70933
            7821         65.8801         63.8075        -2.50974        -5.84118
            7822         65.9857         63.7923        -2.66766        -5.98239
            7823         66.0927         63.7792        -2.81736        -6.13248
            7824         66.2010         63.7684        -2.95885        -6.29100
            7825         66.3110         63.7600        -3.09209        -6.45746
            7826         66.4225         63.7541        -3.21698        -6.63138
            7827         66.5357         63.7508        -3.33339        -6.81223
            7828         66.6504         63.7502        -3.44109        -6.99948
            7829         66.7666         63.7525        -3.53986        -7.19260
            7830         66.8842         63.7576        -3.62937        -7.39101
            7831         67.0028         63.7658        -3.70927        -7.59412
            7832         67.1222         63.7770        -3.77914        -7.80132
            7833         67.2421         63.7913        -3.83850        -8.01197
            7834         67.3621         63.8088        -3.88684        -8.22540
            7835         67.4817         63.8295        -3.92357        -8.44093
            7836         67.6004         63.8534        -3.94804        -8.65783
            7837         67.7175         63.8805        -3.95954        -8.87534
            7838         67.8323         63.9110        -3.95732        -9.09267
            7839         67.9440         63.9446        -3.94055        -9.30899
            7840         68.0519         63.9816        -3.90834        -9.52342
            7841         68.1549         64.0217        -3.85974        -9.73507
            7842         68.2521         64.0650        -3.79373        -9.94297
            7843         68.3423         64.1114        -3.70922        -10.1461
            7844         68.4243         64.1609        -3.60508        -10.3435
            7845         68.4969         64.2133        -3.48008        -10.5340
            7846         68.5586         64.2685        -3.33295        -10.7164
            7847         68.6081         64.3265        -3.16234        -10.8896
            7848         68.6438         64.3870        -2.96686        -11.0523
            7849         68.6641         64.4499        -2.74502        -11.2031
            7850         68.6674         64.5149        -2.49529        -11.3407
            7851         68.6520         64.5819        -2.21611        -11.4636
            7852         68.6161         64.6507        -1.90582        -11.5703
            7853         68.5579         64.7210        -1.56275        -11.6591
            7854         68.4757         64.7924        -1.18516        -11.7284
            7855         68.3675         64.8648    -771.290E-03        -11.7763
            7856         68.2316         64.9378    -319.351E-03        -11.8011
            7857         68.0664         65.0112     172.473E-03        -11.8006
            7858         67.8700         65.0845     706.000E-03        -11.7727
            7859         67.6410         65.1576         1.28306        -11.7153
            7860         67.3779         65.2300         1.90546        -11.6258
            7861         67.0794         65.3016         2.57500        -11.5018
            7862         66.7447         65.3720         3.29346        -11.3404
            7863         66.3729         65.4409         4.06258        -11.1385
            7864         65.9637         65.5082         4.88406        -10.8930
            7865         65.5172         65.5737         5.75955        -10.6002
            7866         65.0339         65.6371         6.69069        -10.2562
            7867         64.5151         65.6983         7.67908        -9.85676
            7868         63.9629         65.7572         8.72632        -9.39706
            7869         63.3803         65.8137         9.83405        -8.87187
            7870         62.7714         65.8674         11.0039        -8.27539
            7871         62.1420         65.9183         12.2378        -7.60118
            7872         61.4995         65.9659         13.5377        -6.84216
            7873         60.8540         66.0098         14.9058        -5.99049
            7874         60.2181         66.0492         16.3447        -5.03759
            7875         59.6084         66.0831         17.8578        -3.97404
            7876         59.0456         66.1101         19.4486        -2.78963
            7877         58.5563         66.1282         21.1216        -1.47323
            7878         58.1731         66.1350         22.8826    -12.6316E-03
            7879         55.0330         59.8076         17.9447        -8.22395
            7880         55.4795         60.1108         17.2388        -8.24084
            7881         55.9411         60.4174         16.5066        -8.24531
            7882         56.4135         60.7249         15.7524        -8.23387
            7883         56.8924         61.0303         14.9813        -8.20400
            7884         57.3730         61.3304         14.1989        -8.15402
            7885         57.8510         61.6220         13.4109        -8.08317
            7886         58.3217         61.9022         12.6230        -7.99158
            7887         58.7814         62.1682         11.8410        -7.88019
            7888         59.2264         62.4176         11.0697        -7.75062
            7889         59.6540         62.6488         10.3138        -7.60503
            7890         60.0619         62.8602         9.57710        -7.44602
            7891         60.4485         63.0511         8.86274        -7.27639
            7892         60.8127         63.2211         8.17317        -7.09908
            7893         61.1541         63.3704         7.51014        -6.91703
            7894         61.4726         63.4993         6.87481        -6.73304
            7895         61.7687         63.6087         6.26777        -6.54978
            7896         62.0429         63.6996         5.68915        -6.36967
            7897         62.2964         63.7731         5.13868        -6.19489
            7898         62.5300         63.8306         4.61579        -6.02737
            7899         62.7452         63.8733         4.11967        -5.86874
            7900         62.9431         63.9026         3.64932        -5.72039
            7901         63.1251         63.9200         3.20361        -5.58346
            7902         63.2926         63.9267         2.78135        -5.45889
            7903         63.4469         63.9240         2.38131        -5.34738
            7904         63.5893         63.9131         2.00224        -5.24948
            7905         63.7209         63.8951         1.64290        -5.16558
            7906         63.8430         63.8710         1.30209        -5.09590
            7907         63.9567         63.8417     978.669E-03        -5.04058
            7908         64.0630         63.8082     671.529E-03        -4.99964
            7909         64.1629         63.7711     379.638E-03        -4.97303
            7910         64.2573         63.7313     102.031E-03        -4.96061
            7911         64.3471         63.6892    -162.188E-03        -4.96219
            7912         64.4329         63.6456    -413.847E-03        -4.97753
            7913         64.5155         63.6008    -653.698E-03        -5.00636
            7914         64.5956         63.5553    -882.428E-03        -5.04835
            7915         64.6738         63.5095        -1.10065        -5.10317
            7916         64.7506         63.4638        -1.30892        -5.17046
            7917         64.8265         63.4184        -1.50771        -5.24983
            7918         64.9019         63.3737        -1.69746        -5.34088
            7919         64.9773         63.3299        -1.87851        -5.44320
            7920         65.0531         63.2871        -2.05117        -5.55637
            7921         65.1294         63.2456        -2.21568        -5.67994
            7922         65.2066         63.2056        -2.37223        -5.81348
            7923         65.2850         63.1672        -2.52095        -5.95652
            7924         65.3646         63.1304        -2.66192        -6.10860
            7925         65.4456         63.0955        -2.79516        -6.26923
            7926         65.5282         63.0626        -2.92064        -6.43793
            7927         65.6123         63.0317        -3.03828        -6.61417
            7928         65.6980         63.0029        -3.14796        -6.79745
            7929         65.7852         62.9764        -3.24949        -6.98723
            7930         65.8738         62.9521        -3.34264        -7.18294
            7931         65.9636         62.9302        -3.42711        -7.38402
            7932         66.0545         62.9107        -3.50258        -7.58986
            7933         66.1461         62.8937        -3.56865        -7.79984
            7934         66.2381         62.8791        -3.62487        -8.01333
            7935         66.3302         62.8671        -3.67074        -8.22965
            7936         66.4219         62.8577        -3.70572        -8.44809
            7937         66.5126         62.8509        -3.72918        -8.66792
            7938         66.6018         62.8468        -3.74046        -8.88838
            7939         66.6887         62.8453        -3.73883        -9.10867
            7940         66.7726         62.8464        -3.72351        -9.32794
            7941         66.8527         62.8502        -3.69364        -9.54531
            7942         66.9279         62.8566        -3.64831        -9.75987
            7943         66.9975         62.8656        -3.58656        -9.97064
            7944         67.0602         62.8772        -3.50735        -10.1766
            7945         67.1148         62.8912        -3.40958        -10.3767
            7946         67.1601         62.9077        -3.29209        -10.5698
            7947         67.1948         62.9266        -3.15366        -10.7548
            7948         67.2174         62.9476        -2.99299        -10.9304
            7949         67.2264         62.9708        -2.80875        -11.0953
            7950         67.2203         62.9959        -2.59953        -11.2482
            7951         67.1973         63.0228        -2.36387        -11.3877
            7952         67.1559         63.0514        -2.10025        -11.5123
            7953         67.0942         63.0814        -1.80710        -11.6205
            7954         67.0104         63.1126        -1.48284        -11.7105
            7955         66.9028         63.1448        -1.12580        -11.7808
            7956         66.7695         63.1778    -734.334E-03        -11.8294
            7957         66.6088         63.2112    -306.741E-03        -11.8546
            7958         66.4190         63.2449     158.677E-03        -11.8542
            7959         66.1983         63.2786     663.611E-03        -11.8263
            7960         65.9452         63.3120         1.20975        -11.7684
            7961         65.6584         63.3450         1.79874        -11.6783
            7962         65.3366         63.3772         2.43220        -11.5533
            7963         64.9789         63.4085         3.11169        -11.3907
            7964         64.5847         63.4388         3.83872        -11.1876
            7965         64.1535         63.4679         4.61470        -10.9405
            7966         63.6857         63.4958         5.44097        -10.6462
            7967         63.1819         63.5225         6.31880        -10.3005
            7968         62.6435         63.5480         7.24937        -9.89937
            7969         62.0727         63.5724         8.23381        -9.43794
            7970         61.4727         63.5957         9.27320        -8.91100
            7971         60.8478         63.6182         10.3686        -8.31272
            7972         60.2040         63.6399         11.5212        -7.63660
            7973         59.5490         63.6608         12.7323        -6.87544
            7974         58.8929         63.6809         14.0033        -6.02125
            7975         58.2488         63.6997         15.3360        -5.06516
            7976         57.6334         63.7169         16.7328        -3.99745
            7977         57.0680         63.7313         18.1965        -2.80747
            7978         56.5794         63.7416         19.7306        -1.48356
            7979         56.2012         63.7457         21.3400    -12.8556E-03
            7980         55.2414         59.8898         17.9698        -8.52678
            7981         55.6963         60.1975         17.2520        -8.54857
            7982         56.1666         60.5093         16.5040        -8.55537
            7983         56.6475         60.8219         15.7310        -8.54322
            7984         57.1337         61.1318         14.9388        -8.50928
            7985         57.6199         61.4355         14.1340        -8.45179
            7986         58.1010         61.7291         13.3235        -8.37009
            7987         58.5721         62.0093         12.5139        -8.26456
            7988         59.0287         62.2730         11.7115        -8.13655
            7989         59.4672         62.5176         10.9221        -7.98818
            7990         59.8847         62.7412         10.1508        -7.82219
            7991         60.2791         62.9425         9.40161        -7.64172
            7992         60.6489         63.1207         8.67795        -7.45013
            7993         60.9933         63.2758         7.98226        -7.25085
            7994         61.3122         63.4080         7.31620        -7.04724
            7995         61.6060         63.5182         6.68073        -6.84247
            7996         61.8754         63.6073         6.07622        -6.63946
            7997         62.1214         63.6767         5.50252        -6.44084
            7998         62.3453         63.7278         4.95908        -6.24893
            7999         62.5486         63.7622         4.44502        -6.06571
            8000         62.7327         63.7814         3.95924        -5.89285
            8001         62.8991         63.7870         3.50049        -5.73173
            8002         63.0495         63.7804         3.06739        -5.58345
            8003         63.1853         63.7633         2.65852        -5.44887
            8004         63.3079         63.7368         2.27245        -5.32862
            8005         63.4187         63.7023         1.90776        -5.22316
            8006         63.5191         63.6609         1.56307        -5.13278
            8007         63.6103         63.6137         1.23705        -5.05762
            8008         63.6934         63.5615     928.443E-03        -4.99772
            8009         63.7694         63.5054     636.054E-03        -4.95301
            8010         63.8394         63.4459     358.777E-03        -4.92335
            8011         63.9042         63.3839     95.5838E-03        -4.90854
            8012         63.9647         63.3198    -154.473E-03        -4.90829
            8013         64.0216         63.2543    -392.261E-03        -4.92232
            8014         64.0755         63.1877    -618.568E-03        -4.95028
            8015         64.1272         63.1205    -834.106E-03        -4.99180
            8016         64.1771         63.0530        -1.03951        -5.04650
            8017         64.2259         62.9855        -1.23536        -5.11396
            8018         64.2738         62.9182        -1.42214        -5.19377
            8019         64.3215         62.8514        -1.60029        -5.28549
            8020         64.3692         62.7853        -1.77019        -5.38869
            8021         64.4172         62.7201        -1.93213        -5.50291
            8022         64.4659         62.6559        -2.08638        -5.62770
            8023         64.5154         62.5927        -2.23313        -5.76258
            8024         64.5660         62.5308        -2.37251        -5.90710
            8025         64.6178         62.4702        -2.50463        -6.06075
            8026         64.6710         62.4110        -2.62951        -6.22305
            8027         64.7256         62.3533        -2.74714        -6.39350
            8028         64.7817         62.2971        -2.85745        -6.57159
            8029         64.8392         62.2426        -2.96033        -6.75677
            8030         64.8981         62.1896        -3.05561        -6.94851
            8031         64.9583         62.1384        -3.14307        -7.14625
            8032         65.0196         62.0890        -3.22245        -7.34941
            8033         65.0818         62.0413        -3.29343        -7.55737
            8034         65.1447         61.9954        -3.35565        -7.76953
            8035         65.2079         61.9515        -3.40868        -7.98523
            8036         65.2711         61.9094        -3.45206        -8.20379
            8037         65.3337         61.8693        -3.48525        -8.42451
            8038         65.3954         61.8311        -3.50769        -8.64664
            8039         65.4555         61.7948        -3.51873        -8.86942
            8040         65.5133         61.7606        -3.51769        -9.09203
            8041         65.5682         61.7284        -3.50382        -9.31363
            8042         65.6192         61.6982        -3.47630        -9.53333
            8043         65.6656         61.6699        -3.43429        -9.75019
            8044         65.7062         61.6437        -3.37684        -9.96323
            8045         65.7401         61.6194        -3.30298        -10.1714
            8046         65.7661         61.5970        -3.21166        -10.3737
            8047         65.7829         61.5765        -3.10176        -10.5690
            8048         65.7893         61.5579        -2.97213        -10.7560
            8049         65.7838         61.5409        -2.82153        -10.9335
            8050         65.7649         61.5256        -2.64868        -11.1002
            8051         65.7311         61.5119        -2.45224        -11.2548
            8052         65.6807         61.4995        -2.23081        -11.3959
            8053         65.6121         61.4885        -1.98295        -11.5218
            8054         65.5235         61.4785        -1.70716        -11.6312
            8055         65.4131         61.4695        -1.40193        -11.7222
            8056         65.2791         61.4613        -1.06570        -11.7932
            8057         65.1198         61.4536    -696.878E-03        -11.8424
            8058         64.9333         61.4463    -293.887E-03        -11.8679
            8059         64.7179         61.4392     144.870E-03        -11.8676
            8060         64.4721         61.4320     620.963E-03        -11.8395
            8061         64.1942         61.4246         1.13594        -11.7813
            8062         63.8829         61.4168         1.69130        -11.6907
            8063         63.5371         61.4085         2.28849        -11.5650
            8064         63.1558         61.3996         2.92887        -11.4016
            8065         62.7384         61.3900         3.61369        -11.1975
            8066         62.2847         61.3797         4.34411        -10.9496
            8067         61.7951         61.3689         5.12115        -10.6543
            8068         61.2703         61.3576         5.94571        -10.3079
            8069         60.7119         61.3460         6.81855        -9.90615
            8070         60.1222         61.3346         7.74029        -9.44433
            8071         59.5046         61.3235         8.71146        -8.91725
            8072         58.8638         61.3134         9.73252        -8.31909
            8073         58.2058         61.3046         10.8039        -7.64336
            8074         57.5387         61.2975         11.9261        -6.88276
            8075         56.8728         61.2925         13.0997        -6.02916
            8076         56.2216         61.2898         14.3256        -5.07349
            8077         55.6021         61.2891         15.6052        -4.00570
            8078         55.0360         61.2903         16.9403        -2.81473
            8079         54.5509         61.2922         18.3335        -1.48837
            8080         54.1808         61.2934         19.7887    -13.0876E-03
            8081         55.4746         59.9934         18.0013        -8.83429
            8082         55.9398         60.3067         17.2692        -8.86170
            8083         56.4208         60.6245         16.5024        -8.87112
            8084         56.9118         60.9433         15.7069        -8.85797
            8085         57.4067         61.2587         14.8899        -8.81910
            8086         57.8994         61.5665         14.0591        -8.75264
            8087         58.3840         61.8623         13.2226        -8.65809
            8088         58.8550         62.1423         12.3881        -8.53622
            8089         59.3076         62.4030         11.5628        -8.38890
            8090         59.7381         62.6415         10.7534        -8.21891
            8091         60.1435         62.8561         9.96532        -8.02966
            8092         60.5218         63.0453         9.20302        -7.82500
            8093         60.8720         63.2087         8.46994        -7.60892
            8094         61.1936         63.3465         7.76848        -7.38541
            8095         61.4869         63.4592         7.10013        -7.15828
            8096         61.7528         63.5481         6.46561        -6.93109
            8097         61.9924         63.6145         5.86494        -6.70703
            8098         62.2072         63.6601         5.29762        -6.48891
            8099         62.3989         63.6866         4.76274        -6.27915
            8100         62.5692         63.6958         4.25909        -6.07976
            8101         62.7199         63.6896         3.78522        -5.89242
            8102         62.8527         63.6698         3.33958        -5.71844
            8103         62.9695         63.6379         2.92053        -5.55885
            8104         63.0719         63.5956         2.52641        -5.41442
            8105         63.1614         63.5442         2.15557        -5.28566
            8106         63.2395         63.4852         1.80642        -5.17292
            8107         63.3076         63.4197         1.47743        -5.07637
            8108         63.3669         63.3487         1.16715        -4.99605
            8109         63.4186         63.2732     874.197E-03        -4.93188
            8110         63.4637         63.1940     597.316E-03        -4.88369
            8111         63.5032         63.1119     335.323E-03        -4.85125
            8112         63.5380         63.0274     87.1346E-03        -4.83426
            8113         63.5689         62.9412    -148.240E-03        -4.83238
            8114         63.5964         62.8536    -371.704E-03        -4.84523
            8115         63.6214         62.7652    -584.071E-03        -4.87241
            8116         63.6444         62.6762    -786.075E-03        -4.91349
            8117         63.6659         62.5869    -978.370E-03        -4.96804
            8118         63.6864         62.4975        -1.16154        -5.03561
            8119         63.7062         62.4084        -1.33608        -5.11573
            8120         63.7258         62.3195        -1.50245        -5.20796
            8121         63.7455         62.2312        -1.66102        -5.31181
            8122         63.7656         62.1434        -1.81210        -5.42681
            8123         63.7863         62.0563        -1.95596        -5.55249
            8124         63.8077         61.9700        -2.09280        -5.68837
            8125         63.8302         61.8846        -2.22276        -5.83395
            8126         63.8538         61.8000        -2.34594        -5.98874
            8127         63.8787         61.7163        -2.46239        -6.15224
            8128         63.9048         61.6336        -2.57210        -6.32394
            8129         63.9322         61.5519        -2.67502        -6.50332
            8130         63.9609         61.4713        -2.77104        -6.68985
            8131         63.9908         61.3917        -2.86002        -6.88297
            8132         64.0218         61.3132        -2.94175        -7.08212
            8133         64.0538         61.2357        -3.01600        -7.28673
            8134         64.0865         61.1595        -3.08246        -7.49618
            8135         64.1197         61.0843        -3.14079        -7.70985
            8136         64.1531         61.0104        -3.19060        -7.92709
            8137         64.1863         60.9376        -3.23145        -8.14721
            8138         64.2190         60.8661        -3.26284        -8.36952
            8139         64.2505         60.7959        -3.28423        -8.59327
            8140         64.2803         60.7268        -3.29502        -8.81769
            8141         64.3079         60.6591        -3.29456        -9.04195
            8142         64.3324         60.5927        -3.28213        -9.26521
            8143         64.3531         60.5276        -3.25698        -9.48657
            8144         64.3692         60.4639        -3.21828        -9.70509
            8145         64.3796         60.4014        -3.16517        -9.91979
            8146         64.3834         60.3403        -3.09669        -10.1296
            8147         64.3794         60.2805        -3.01186        -10.3335
            8148         64.3665         60.2220        -2.90962        -10.5303
            8149         64.3432         60.1647        -2.78887        -10.7188
            8150         64.3083         60.1087        -2.64843        -10.8978
            8151         64.2602         60.0538        -2.48708        -11.0659
            8152         64.1974         60.0000        -2.30354        -11.2218
            8153         64.1184         59.9473        -2.09648        -11.3640
            8154         64.0214         59.8954        -1.86453        -11.4910
            8155         63.9047         59.8443        -1.60628        -11.6012
            8156         63.7665         59.7939        -1.32026        -11.6929
            8157         63.6051         59.7440        -1.00502        -11.7645
            8158         63.4187         59.6945    -659.053E-03        -11.8141
            8159         63.2055         59.6453    -280.866E-03        -11.8398
            8160         62.9638         59.5961     131.031E-03        -11.8396
            8161         62.6919         59.5469     578.095E-03        -11.8114
            8162         62.3884         59.4976         1.06175        -11.7529
            8163         62.0519         59.4479         1.58334        -11.6619
            8164         61.6812         59.3980         2.14416        -11.5357
            8165         61.2756         59.3476         2.74536        -11.3718
            8166         60.8345         59.2970         3.38799        -11.1673
            8167         60.3578         59.2461         4.07292        -10.9190
            8168         59.8458         59.1953         4.80088        -10.6235
            8169         59.2996         59.1448         5.57240        -10.2772
            8170         58.7208         59.0950         6.38780        -9.87584
            8171         58.1120         59.0464         7.24722        -9.41492
            8172         57.4767         58.9997         8.15060        -8.88929
            8173         56.8200         58.9557         9.09774        -8.29319
            8174         56.1481         58.9151         10.0883        -7.62015
            8175         55.4693         58.8787         11.1219        -6.86284
            8176         54.7945         58.8474         12.1984        -6.01304
            8177         54.1374         58.8218         13.3174        -5.06151
            8178         53.5155         58.8025         14.4794        -3.99788
            8179         52.9510         58.7895         15.6851        -2.81072
            8180         52.4720         58.7825         16.9359        -1.48726
            8181         52.1135         58.7806         18.2345    -13.2468E-03
            8182         55.7357         60.1215         18.0402        -9.14751
            8183         56.2135         60.4416         17.2909        -9.18137
            8184         56.7074         60.7668         16.5016        -9.19369
            8185         57.2105         61.0928         15.6795        -9.17915
            8186         57.7157         61.4146         14.8333        -9.13421
            8187         58.2159         61.7272         13.9722        -9.05696
            8188         58.7041         62.0254         13.1057        -8.94712
            8189         59.1744         62.3047         12.2428        -8.80599
            8190         59.6217         62.5613         11.3920        -8.63616
            8191         60.0421         62.7924         10.5606        -8.44123
            8192         60.4326         62.9958         9.75448        -8.22548
            8193         60.7918         63.1706         8.97855        -7.99356
            8194         61.1189         63.3165         8.23619        -7.75023
            8195         61.4141         63.4340         7.52966        -7.50008
            8196         61.6782         63.5244         6.86016        -7.24746
            8197         61.9126         63.5890         6.22801        -6.99626
            8198         62.1190         63.6299         5.63283        -6.74995
            8199         62.2993         63.6490         5.07367        -6.51147
            8200         62.4558         63.6485         4.54918        -6.28332
            8201         62.5904         63.6305         4.05775        -6.06750
            8202         62.7052         63.5970         3.59755        -5.86563
            8203         62.8024         63.5500         3.16670        -5.67893
            8204         62.8837         63.4913         2.76326        -5.50830
            8205         62.9511         63.4226         2.38532        -5.35437
            8206         63.0061         63.3454         2.03102        -5.21753
            8207         63.0504         63.2610         1.69860        -5.09797
            8208         63.0852         63.1706         1.38636        -4.99572
            8209         63.1119         63.0754         1.09275        -4.91068
            8210         63.1316         62.9761     816.290E-03        -4.84267
            8211         63.1454         62.8736     555.640E-03        -4.79140
            8212         63.1541         62.7686     309.559E-03        -4.75652
            8213         63.1586         62.6616     76.9197E-03        -4.73765
            8214         63.1595         62.5532    -143.306E-03        -4.73437
            8215         63.1577         62.4437    -352.046E-03        -4.74621
            8216         63.1536         62.3334    -550.134E-03        -4.77273
            8217         63.1479         62.2227    -738.316E-03        -4.81343
            8218         63.1408         62.1117    -917.257E-03        -4.86783
            8219         63.1329         62.0006        -1.08754        -4.93544
            8220         63.1245         61.8897        -1.24969        -5.01576
            8221         63.1160         61.7789        -1.40413        -5.10830
            8222         63.1076         61.6683        -1.55126        -5.21257
            8223         63.0995         61.5581        -1.69139        -5.32807
            8224         63.0920         61.4483        -1.82478        -5.45431
            8225         63.0852         61.3388        -1.95164        -5.59079
            8226         63.0793         61.2298        -2.07213        -5.73701
            8227         63.0743         61.1211        -2.18633        -5.89247
            8228         63.0704         61.0129        -2.29431        -6.05666
            8229         63.0676         60.9052        -2.39607        -6.22907
            8230         63.0658         60.7978        -2.49156        -6.40917
            8231         63.0651         60.6908        -2.58070        -6.59643
            8232         63.0653         60.5843        -2.66335        -6.79030
            8233         63.0664         60.4782        -2.73933        -6.99021
            8234         63.0683         60.3725        -2.80842        -7.19559
            8235         63.0706         60.2672        -2.87033        -7.40582
            8236         63.0732         60.1624        -2.92476        -7.62030
            8237         63.0758         60.0580        -2.97132        -7.83836
            8238         63.0780         59.9540        -3.00962        -8.05933
            8239         63.0795         59.8505        -3.03919        -8.28250
            8240         63.0796         59.7475        -3.05951        -8.50714
            8241         63.0780         59.6450        -3.07002        -8.73246
            8242         63.0740         59.5431        -3.07012        -8.95764
            8243         63.0669         59.4417        -3.05913        -9.18185
            8244         63.0560         59.3409        -3.03633        -9.40418
            8245         63.0404         59.2407        -3.00095        -9.62368
            8246         63.0193         59.1412        -2.95217        -9.83936
            8247         62.9915         59.0423        -2.88909        -10.0502
            8248         62.9561         58.9440        -2.81077        -10.2551
            8249         62.9119         58.8464        -2.71623        -10.4529
            8250         62.8576         58.7495        -2.60439        -10.6423
            8251         62.7918         58.6533        -2.47417        -10.8222
            8252         62.7131         58.5577        -2.32438        -10.9912
            8253         62.6200         58.4627        -2.15383        -11.1479
            8254         62.5110         58.3683        -1.96124        -11.2909
            8255         62.3843         58.2744        -1.74532        -11.4185
            8256         62.2383         58.1810        -1.50472        -11.5293
            8257         62.0713         58.0879        -1.23806        -11.6216
            8258         61.8813         57.9952    -943.951E-03        -11.6935
            8259         61.6667         57.9027    -620.983E-03        -11.7433
            8260         61.4258         57.8104    -267.748E-03        -11.7692
            8261         61.1567         57.7180     117.148E-03        -11.7690
            8262         60.8580         57.6256     535.056E-03        -11.7406
            8263         60.5280         57.5331     987.279E-03        -11.6820
            8264         60.1656         57.4405         1.47504        -11.5907
            8265         59.7695         57.3477         1.99946        -11.4643
            8266         59.3389         57.2549         2.56153        -11.3002
            8267         58.8735         57.1620         3.16207        -11.0956
            8268         58.3731         57.0695         3.80173        -10.8475
            8269         57.8383         56.9776         4.48091        -10.5525
            8270         57.2703         56.8867         5.19980        -10.2070
            8271         56.6707         56.7974         5.95829        -9.80719
            8272         56.0426         56.7105         6.75602        -9.34845
            8273         55.3896         56.6269         7.59235        -8.82584
            8274         54.7170         56.5477         8.46637        -8.23371
            8275         54.0314         56.4739         9.37697        -7.56565
            8276         53.3417         56.4070         10.3229        -6.81439
            8277         52.6588         56.3481         11.3028        -5.97167
            8278         51.9971         56.2985         12.3155        -5.02809
            8279         51.3745         56.2594         13.3600        -3.97307
            8280         50.8139         56.2314         14.4359        -2.79475
            8281         50.3440         56.2150         15.5434        -1.47985
            8282         50.0009         56.2097         16.6838    -13.3617E-03
            8283         56.0288         60.2781         18.0878        -9.46760
            8284         56.5218         60.6063         17.3178        -9.50890
            8285         57.0312         60.9403         16.5015        -9.52440
            8286         57.5487         61.2750         15.6480        -9.50792
            8287         58.0658         61.6043         14.7674        -9.45545
            8288         58.5743         61.9221         13.8709        -9.36507
            8289         59.0662         62.2226         12.9698        -9.23690
            8290         59.5348         62.5005         12.0748        -9.07297
            8291         59.9748         62.7517         11.1954        -8.87680
            8292         60.3822         62.9731         10.3400        -8.65306
            8293         60.7546         63.1627         9.51488        -8.40709
            8294         61.0907         63.3200         8.72513        -8.14452
            8295         61.3905         63.4450         7.97405        -7.87096
            8296         61.6550         63.5389         7.26359        -7.59170
            8297         61.8856         63.6034         6.59451        -7.31159
            8298         62.0844         63.6406         5.96661        -7.03491
            8299         62.2538         63.6528         5.37897        -6.76532
            8300         62.3962         63.6426         4.83010        -6.50588
            8301         62.5142         63.6124         4.31813        -6.25907
            8302         62.6103         63.5648         3.84098        -6.02684
            8303         62.6869         63.5019         3.39641        -5.81067
            8304         62.7462         63.4261         2.98216        -5.61164
            8305         62.7904         63.3392         2.59599        -5.43049
            8306         62.8213         63.2429         2.23575        -5.26766
            8307         62.8407         63.1389         1.89934        -5.12336
            8308         62.8501         63.0284         1.58483        -4.99761
            8309         62.8510         62.9128         1.29041        -4.89029
            8310         62.8445         62.7929         1.01437        -4.80115
            8311         62.8318         62.6696     755.190E-03        -4.72984
            8312         62.8139         62.5437     511.444E-03        -4.67598
            8313         62.7916         62.4158     281.847E-03        -4.63910
            8314         62.7657         62.2864     65.2376E-03        -4.61872
            8315         62.7369         62.1559    -139.437E-03        -4.61433
            8316         62.7056         62.0245    -333.121E-03        -4.62539
            8317         62.6726         61.8926    -516.657E-03        -4.65139
            8318         62.6381         61.7604    -690.798E-03        -4.69179
            8319         62.6026         61.6280    -856.208E-03        -4.74604
            8320         62.5664         61.4955        -1.01347        -4.81362
            8321         62.5299         61.3629        -1.16311        -4.89401
            8322         62.4932         61.2304        -1.30555        -4.98668
            8323         62.4567         61.0979        -1.44118        -5.09111
            8324         62.4204         60.9654        -1.57031        -5.20680
            8325         62.3846         60.8329        -1.69321        -5.33323
            8326         62.3494         60.7004        -1.81008        -5.46989
            8327         62.3149         60.5679        -1.92108        -5.61629
            8328         62.2811         60.4353        -2.02630        -5.77191
            8329         62.2481         60.3025        -2.12581        -5.93624
            8330         62.2158         60.1696        -2.21962        -6.10877
            8331         62.1844         60.0365        -2.30769        -6.28898
            8332         62.1537         59.9031        -2.38995        -6.47632
            8333         62.1237         59.7695        -2.46628        -6.67025
            8334         62.0942         59.6355        -2.53650        -6.87022
            8335         62.0651         59.5012        -2.60042        -7.07564
            8336         62.0363         59.3666        -2.65778        -7.28593
            8337         62.0074         59.2317        -2.70829        -7.50045
            8338         61.9781         59.0964        -2.75160        -7.71856
            8339         61.9483         58.9607        -2.78733        -7.93959
            8340         61.9174         58.8247        -2.81505        -8.16285
            8341         61.8850         58.6884        -2.83428        -8.38758
            8342         61.8506         58.5518        -2.84450        -8.61302
            8343         61.8137         58.4149        -2.84513        -8.83837
            8344         61.7737         58.2777        -2.83554        -9.06275
            8345         61.7297         58.1404        -2.81508        -9.28529
            8346         61.6810         58.0029        -2.78300        -9.50504
            8347         61.6267         57.8653        -2.73853        -9.72100
            8348         61.5660         57.7277        -2.68083        -9.93214
            8349         61.4976         57.5899        -2.60902        -10.1373
            8350         61.4206         57.4522        -2.52216        -10.3355
            8351         61.3337         57.3146        -2.41926        -10.5253
            8352         61.2355         57.1770        -2.29926        -10.7056
            8353         61.1248         57.0395        -2.16107        -10.8750
            8354         60.9999         56.9022        -2.00354        -11.0320
            8355         60.8595         56.7649        -1.82548        -11.1753
            8356         60.7017         56.6278        -1.62564        -11.3033
            8357         60.5251         56.4908        -1.40277        -11.4143
            8358         60.3278         56.3540        -1.15555        -11.5068
            8359         60.1081         56.2172    -882.663E-03        -11.5789
            8360         59.8643         56.0804    -582.786E-03        -11.6289
            8361         59.5945         55.9437    -254.593E-03        -11.6547
            8362         59.2971         55.8070     103.221E-03        -11.6545
            8363         58.9706         55.6702     491.908E-03        -11.6261
            8364         58.6134         55.5334     912.665E-03        -11.5674
            8365         58.2242         55.3967         1.36660        -11.4761
            8366         57.8019         55.2600         1.85468        -11.3497
            8367         57.3459         55.1235         2.37774        -11.1857
            8368         56.8556         54.9874         2.93642        -10.9815
            8369         56.3311         54.8521         3.53112        -10.7340
            8370         55.7731         54.7180         4.16197        -10.4401
            8371         55.1828         54.5856         4.82882        -10.0964
            8372         54.5623         54.4558         5.53115        -9.69904
            8373         53.9145         54.3295         6.26809        -9.24373
            8374         53.2437         54.2078         7.03842        -8.72565
            8375         52.5553         54.0920         7.84051        -8.13935
            8376         51.8564         53.9839         8.67241        -7.47857
            8377         51.1562         53.8850         9.53190        -6.73613
            8378         50.4662         53.7973         10.4166        -5.90378
            8379         49.8012         53.7225         11.3240        -4.97209
            8380         49.1797         53.6625         12.2519        -3.93026
            8381         48.6255         53.6187         13.1984        -2.76609
            8382         48.1680         53.5922         14.1622        -1.46574
            8383         47.8443         53.5835         15.1433    -13.4335E-03
            8384         56.3584         60.4677         18.1453        -9.79595
            8385         56.8697         60.8055         17.3505        -9.84584
            8386         57.3976         61.1501         16.5022        -9.86482
            8387         57.9321         61.4949         15.6111        -9.84560
            8388         58.4631         61.8328         14.6899        -9.78368
            8389         58.9806         62.1565         13.7522        -9.67719
            8390         59.4757         62.4590         12.8113        -9.52689
            8391         59.9410         62.7343         11.8798        -9.33580
            8392         60.3709         62.9780         10.9689        -9.10871
            8393         60.7617         63.1868         10.0875        -8.85163
            8394         61.1115         63.3593         9.24272        -8.57121
            8395         61.4197         63.4951         8.43943        -8.27426
            8396         61.6872         63.5952         7.68073        -7.96733
            8397         61.9159         63.6613         6.96805        -7.65647
            8398         62.1082         63.6959         6.30153        -7.34702
            8399         62.2668         63.7017         5.68029        -7.04358
            8400         62.3950         63.6817         5.10271        -6.74997
            8401         62.4957         63.6390         4.56664        -6.46926
            8402         62.5719         63.5764         4.06964        -6.20386
            8403         62.6267         63.4967         3.60908        -5.95557
            8404         62.6626         63.4026         3.18228        -5.72567
            8405         62.6821         63.2962         2.78658        -5.51504
            8406         62.6874         63.1797         2.41945        -5.32417
            8407         62.6806         63.0549         2.07844        -5.15330
            8408         62.6633         62.9233         1.76128        -5.00241
            8409         62.6372         62.7862         1.46587        -4.87133
            8410         62.6035         62.6449         1.19026        -4.75975
            8411         62.5636         62.5002     932.666E-03        -4.66724
            8412         62.5184         62.3529     691.482E-03        -4.59333
            8413         62.4688         62.2037     465.241E-03        -4.53748
            8414         62.4156         62.0531     252.625E-03        -4.49911
            8415         62.3594         61.9015     52.4468E-03        -4.47765
            8416         62.3009         61.7491    -136.355E-03        -4.47249
            8417         62.2405         61.5963    -314.730E-03        -4.48304
            8418         62.1787         61.4432    -483.521E-03        -4.50869
            8419         62.1158         61.2899    -643.475E-03        -4.54886
            8420         62.0521         61.1364    -795.253E-03        -4.60298
            8421         61.9879         60.9827    -939.432E-03        -4.67047
            8422         61.9235         60.8290        -1.07652        -4.75078
            8423         61.8589         60.6750        -1.20694        -4.84336
            8424         61.7944         60.5209        -1.33107        -4.94768
            8425         61.7300         60.3664        -1.44923        -5.06321
            8426         61.6660         60.2116        -1.56166        -5.18944
            8427         61.6023         60.0563        -1.66857        -5.32584
            8428         61.5390         59.9004        -1.77012        -5.47191
            8429         61.4762         59.7439        -1.86640        -5.62714
            8430         61.4138         59.5867        -1.95748        -5.79103
            8431         61.3519         59.4287        -2.04338        -5.96304
            8432         61.2904         59.2698        -2.12407        -6.14268
            8433         61.2293         59.1100        -2.19948        -6.32940
            8434         61.1684         58.9491        -2.26951        -6.52267
            8435         61.1076         58.7872        -2.33400        -6.72193
            8436         61.0469         58.6241        -2.39277        -6.92662
            8437         60.9859         58.4599        -2.44559        -7.13615
            8438         60.9246         58.2945        -2.49218        -7.34990
            8439         60.8625         58.1279        -2.53222        -7.56724
            8440         60.7995         57.9601        -2.56537        -7.78750
            8441         60.7351         57.7910        -2.59123        -8.00999
            8442         60.6689         57.6208        -2.60935        -8.23399
            8443         60.6005         57.4494        -2.61924        -8.45872
            8444         60.5293         57.2769        -2.62037        -8.68338
            8445         60.4548         57.1033        -2.61217        -8.90713
            8446         60.3762         56.9286        -2.59399        -9.12908
            8447         60.2929         56.7530        -2.56516        -9.34828
            8448         60.2040         56.5764        -2.52496        -9.56376
            8449         60.1085         56.3990        -2.47261        -9.77446
            8450         60.0056         56.2208        -2.40727        -9.97930
            8451         59.8942         56.0419        -2.32806        -10.1771
            8452         59.7729         55.8624        -2.23405        -10.3667
            8453         59.6408         55.6824        -2.12426        -10.5468
            8454         59.4963         55.5018        -1.99765        -10.7160
            8455         59.3381         55.3208        -1.85313        -10.8729
            8456         59.1646         55.1395        -1.68959        -11.0161
            8457         58.9743         54.9579        -1.50585        -11.1440
            8458         58.7656         54.7761        -1.30071        -11.2550
            8459         58.5367         54.5941        -1.07295        -11.3475
            8460         58.2859         54.4120    -821.321E-03        -11.4196
            8461         58.0116         54.2297    -544.566E-03        -11.4695
            8462         57.7119         54.0474    -241.443E-03        -11.4953
            8463         57.3852         53.8651     89.2683E-03        -11.4951
            8464         57.0299         53.6828     448.735E-03        -11.4667
            8465         56.6446         53.5006     838.056E-03        -11.4080
            8466         56.2279         53.3185         1.25823        -11.3168
            8467         55.7788         53.1368         1.71010        -11.1907
            8468         55.2966         52.9557         2.19437        -11.0273
            8469         54.7809         52.7753         2.71150        -10.8238
            8470         54.2319         52.5962         3.26168        -10.5775
            8471         53.6503         52.4189         3.84479        -10.2854
            8472         53.0375         52.2441         4.46035        -9.94423
            8473         52.3957         52.0727         5.10747        -9.55031
            8474         51.7283         51.9058         5.78478        -9.09961
            8475         51.0396         51.7448         6.49047        -8.58755
            8476         50.3355         51.5915         7.22219        -8.00890
            8477         49.6236         51.4477         7.97712        -7.35763
            8478         48.9134         51.3157         8.75203        -6.62675
            8479         48.2172         51.1978         9.54334        -5.80812
            8480         47.5502         51.0966         10.3473        -4.89233
            8481         46.9319         51.0146         11.1601        -3.86843
            8482         46.3865         50.9540         11.9782        -2.72393
            8483         45.9446         50.9167         12.7990        -1.44446
            8484         45.6445         50.9042         13.6203    -13.4434E-03
            8485         56.7299         60.6955         18.2146        -10.1342
            8486         57.2633         61.0450         17.3900        -10.1940
            8487         57.8134         61.4021         16.5031        -10.2168
            8488         58.3680         61.7589         15.5673        -10.1937
            8489         58.9147         62.1067         14.5981        -10.1197
            8490         59.4417         62.4366         13.6120        -9.99331
            8491         59.9390         62.7403         12.6254        -9.81607
            8492         60.3985         63.0112         11.6529        -9.59245
            8493         60.8145         63.2443         10.7073        -9.32893
            8494         61.1838         63.4368         9.79851        -9.03325
            8495         61.5052         63.5875         8.93379        -8.71366
            8496         61.7796         63.6971         8.11792        -8.37829
            8497         62.0088         63.7671         7.35340        -8.03477
            8498         62.1958         63.8005         6.64094        -7.68990
            8499         62.3441         63.8004         5.97980        -7.34948
            8500         62.4575         63.7705         5.36821        -7.01836
            8501         62.5398         63.7145         4.80372        -6.70039
            8502         62.5948         63.6358         4.28341        -6.39856
            8503         62.6260         63.5379         3.80415        -6.11507
            8504         62.6366         63.4239         3.36273        -5.85150
            8505         62.6294         63.2964         2.95600        -5.60885
            8506         62.6073         63.1580         2.58092        -5.38770
            8507         62.5724         63.0108         2.23461        -5.18826
            8508         62.5267         62.8565         1.91440        -5.01050
            8509         62.4721         62.6968         1.61783        -4.85415
            8510         62.4099         62.5328         1.34264        -4.71881
            8511         62.3416         62.3657         1.08678        -4.60395
            8512         62.2681         62.1963     848.413E-03        -4.50899
            8513         62.1905         62.0252     625.862E-03        -4.43327
            8514         62.1094         61.8529     417.636E-03        -4.37613
            8515         62.0256         61.6800     222.399E-03        -4.33687
            8516         61.9396         61.5066     38.9598E-03        -4.31481
            8517         61.8519         61.3329    -133.742E-03        -4.30927
            8518         61.7629         61.1592    -296.648E-03        -4.31958
            8519         61.6728         60.9853    -450.590E-03        -4.34507
            8520         61.5819         60.8114    -596.301E-03        -4.38512
            8521         61.4905         60.6374    -734.427E-03        -4.43910
            8522         61.3987         60.4632    -865.531E-03        -4.50641
            8523         61.3067         60.2887    -990.102E-03        -4.58648
            8524         61.2145         60.1138        -1.10856        -4.67874
            8525         61.1223         59.9385        -1.22127        -4.78265
            8526         61.0301         59.7624        -1.32852        -4.89765
            8527         60.9379         59.5856        -1.43057        -5.02323
            8528         60.8458         59.4078        -1.52761        -5.15888
            8529         60.7539         59.2290        -1.61979        -5.30408
            8530         60.6619         59.0489        -1.70722        -5.45833
            8531         60.5701         58.8674        -1.78996        -5.62112
            8532         60.4782         58.6844        -1.86803        -5.79194
            8533         60.3863         58.4998        -1.94141        -5.97028
            8534         60.2943         58.3135        -2.01004        -6.15563
            8535         60.2020         58.1254        -2.07382        -6.34744
            8536         60.1093         57.9354        -2.13263        -6.54519
            8537         60.0162         57.7434        -2.18629        -6.74831
            8538         59.9223         57.5493        -2.23459        -6.95622
            8539         59.8276         57.3532        -2.27728        -7.16833
            8540         59.7317         57.1549        -2.31407        -7.38400
            8541         59.6343         56.9546        -2.34464        -7.60259
            8542         59.5352         56.7520        -2.36861        -7.82342
            8543         59.4340         56.5474        -2.38559        -8.04577
            8544         59.3302         56.3406        -2.39513        -8.26889
            8545         59.2233         56.1318        -2.39672        -8.49198
            8546         59.1128         55.9210        -2.38983        -8.71421
            8547         58.9980         55.7082        -2.37389        -8.93470
            8548         58.8784         55.4935        -2.34826        -9.15252
            8549         58.7531         55.2771        -2.31226        -9.36669
            8550         58.6212         55.0590        -2.26517        -9.57618
            8551         58.4820         54.8393        -2.20622        -9.77989
            8552         58.3342         54.6181        -2.13459        -9.97667
            8553         58.1770         54.3956        -2.04940        -10.1653
            8554         58.0090         54.1718        -1.94974        -10.3445
            8555         57.8289         53.9470        -1.83463        -10.5130
            8556         57.6356         53.7212        -1.70306        -10.6693
            8557         57.4274         53.4945        -1.55398        -10.8120
            8558         57.2029         53.2671        -1.38628        -10.9394
            8559         56.9604         53.0392        -1.19884        -11.0501
            8560         56.6984         52.8107    -990.497E-03        -11.1422
            8561         56.4151         52.5819    -760.081E-03        -11.2141
            8562         56.1089         52.3528    -506.412E-03        -11.2639
            8563         55.7781         52.1236    -228.319E-03        -11.2896
            8564         55.4209         51.8944     75.3401E-03        -11.2894
            8565         55.0359         51.6653     405.654E-03        -11.2612
            8566         54.6215         51.4364     763.636E-03        -11.2027
            8567         54.1766         51.2080         1.15019        -11.1119
            8568         53.7000         50.9802         1.56607        -10.9864
            8569         53.1912         50.7533         2.01183        -10.8238
            8570         52.6496         50.5277         2.48781        -10.6216
            8571         52.0757         50.3038         2.99400        -10.3771
            8572         51.4702         50.0824         3.53007        -10.0874
            8573         50.8346         49.8641         4.09526        -9.74950
            8574         50.1714         49.6502         4.68831        -9.35999
            8575         49.4842         49.4418         5.30739        -8.91506
            8576         48.7777         49.2406         5.95011        -8.41044
            8577         48.0581         49.0486         6.61340        -7.84120
            8578         47.3334         48.8681         7.29357        -7.20163
            8579         46.6139         48.7017         7.98630        -6.48501
            8580         45.9123         48.5525         8.68676        -5.68343
            8581         45.2448         48.4236         9.38970        -4.78758
            8582         44.6313         48.3183         10.0897        -3.78650
            8583         44.0973         48.2399         10.7816        -2.66742
            8584         43.6744         48.1912         11.4605        -1.41552
            8585         43.4022         48.1746         12.1225    -13.3729E-03
            8586         57.1501         60.9683         18.2974        -10.4843
            8587         57.7100         61.3316         17.4371        -10.5557
            8588         58.2867         61.7038         16.5038        -10.5824
            8589         58.8648         62.0747         15.5144        -10.5538
            8590         59.4292         62.4336         14.4881        -10.4644
            8591         59.9660         62.7697         13.4456        -10.3130
            8592         60.4635         63.0733         12.4064        -10.1027
            8593         60.9133         63.3368         11.3880        -9.83997
            8594         61.3100         63.5553         10.4048        -9.53343
            8595         61.6512         63.7262         9.46756        -9.19306
            8596         61.9373         63.8494         8.58351        -8.82903
            8597         62.1703         63.9264         7.75690        -8.45101
            8598         62.3539         63.9604         6.98934        -8.06774
            8599         62.4923         63.9551         6.28042        -7.68672
            8600         62.5904         63.9150         5.62828        -7.31413
            8601         62.6530         63.8445         5.03003        -6.95490
            8602         62.6847         63.7482         4.48220        -6.61279
            8603         62.6899         63.6300         3.98101        -6.29054
            8604         62.6726         63.4938         3.52257        -5.99004
            8605         62.6363         63.3430         3.10306        -5.71250
            8606         62.5841         63.1804         2.71884        -5.45854
            8607         62.5187         63.0086         2.36648        -5.22837
            8608         62.4424         62.8297         2.04280        -5.02188
            8609         62.3572         62.6455         1.74492        -4.83869
            8610         62.2648         62.4573         1.47019        -4.67827
            8611         62.1666         62.2664         1.21627        -4.53995
            8612         62.0636         62.0736     981.016E-03        -4.42300
            8613         61.9569         61.8798     762.535E-03        -4.32663
            8614         61.8473         61.6853     559.136E-03        -4.25003
            8615         61.7353         61.4906     369.316E-03        -4.19239
            8616         61.6215         61.2959     191.741E-03        -4.15291
            8617         61.5064         61.1014     25.2332E-03        -4.13079
            8618         61.3902         60.9072    -131.252E-03        -4.12529
            8619         61.2731         60.7132    -278.636E-03        -4.13565
            8620         61.1555         60.5194    -417.725E-03        -4.16117
            8621         61.0374         60.3256    -549.232E-03        -4.20118
            8622         60.9189         60.1318    -673.778E-03        -4.25501
            8623         60.8001         59.9377    -791.903E-03        -4.32205
            8624         60.6811         59.7431    -904.077E-03        -4.40169
            8625         60.5619         59.5480        -1.01070        -4.49336
            8626         60.4424         59.3520        -1.11212        -4.59650
            8627         60.3227         59.1549        -1.20862        -4.71056
            8628         60.2027         58.9565        -1.30043        -4.83502
            8629         60.0825         58.7567        -1.38774        -4.96938
            8630         59.9619         58.5552        -1.47071        -5.11311
            8631         59.8409         58.3518        -1.54942        -5.26572
            8632         59.7194         58.1464        -1.62394        -5.42672
            8633         59.5975         57.9387        -1.69430        -5.59561
            8634         59.4749         57.7286        -1.76047        -5.77188
            8635         59.3516         57.5159        -1.82242        -5.95503
            8636         59.2274         57.3006        -1.88005        -6.14455
            8637         59.1023         57.0824        -1.93325        -6.33990
            8638         58.9760         56.8614        -1.98185        -6.54054
            8639         58.8485         56.6373        -2.02568        -6.74591
            8640         58.7194         56.4103        -2.06450        -6.95543
            8641         58.5887         56.1801        -2.09805        -7.16849
            8642         58.4559         55.9468        -2.12604        -7.38445
            8643         58.3209         55.7103        -2.14813        -7.60265
            8644         58.1832         55.4707        -2.16395        -7.82238
            8645         58.0425         55.2280        -2.17308        -8.04292
            8646         57.8984         54.9823        -2.17508        -8.26348
            8647         57.7503         54.7335        -2.16946        -8.48324
            8648         57.5977         54.4818        -2.15567        -8.70135
            8649         57.4400         54.2273        -2.13314        -8.91687
            8650         57.2765         53.9701        -2.10124        -9.12885
            8651         57.1063         53.7102        -2.05932        -9.33626
            8652         56.9288         53.4480        -2.00665        -9.53803
            8653         56.7428         53.1834        -1.94247        -9.73301
            8654         56.5475         52.9167        -1.86598        -9.91999
            8655         56.3417         52.6481        -1.77632        -10.0977
            8656         56.1242         52.3777        -1.67259        -10.2648
            8657         55.8937         52.1057        -1.55384        -10.4199
            8658         55.6489         51.8323        -1.41909        -10.5616
            8659         55.3883         51.5578        -1.26731        -10.6882
            8660         55.1103         51.2823        -1.09744        -10.7981
            8661         54.8135         51.0059    -908.404E-03        -10.8897
            8662         54.4961         50.7290    -699.089E-03        -10.9612
            8663         54.1566         50.4518    -468.392E-03        -11.0107
            8664         53.7932         50.1743    -215.213E-03        -11.0364
            8665         53.4043         49.8968     61.5199E-03        -11.0363
            8666         52.9885         49.6196     362.823E-03        -11.0082
            8667         52.5442         49.3428     689.638E-03        -10.9503
            8668         52.0701         49.0668         1.04279        -10.8601
            8669         51.5654         48.7918         1.42294        -10.7356
            8670         51.0293         48.5181         1.83057        -10.5743
            8671         50.4615         48.2462         2.26587        -10.3738
            8672         49.8623         47.9767         2.72871        -10.1317
            8673         49.2326         47.7103         3.21856        -9.84515
            8674         48.5741         47.4478         3.73441        -9.51136
            8675         47.8895         47.1905         4.27470        -9.12719
            8676         47.1825         46.9398         4.83717        -8.68916
            8677         46.4582         46.6975         5.41888        -8.19334
            8678         45.7232         46.4658         6.01606        -7.63521
            8679         44.9862         46.2475         6.62413        -7.00944
            8680         44.2579         46.0457         7.23767        -6.30972
            8681         43.5519         45.8639         7.85049        -5.52848
            8682         42.8850         45.7061         8.45578        -4.65665
            8683         42.2783         45.5765         9.04630        -3.68334
            8684         41.7582         45.4792         9.61473        -2.59568
            8685         41.3576         45.4184         10.1541        -1.37838
            8686         41.1178         45.3975         10.6582    -13.2211E-03
            8687         57.6270         61.2940         18.3964        -10.8486
            8688         58.2191         61.6741         17.4930        -10.9336
            8689         58.8277         62.0641         16.5035        -10.9643
            8690         59.4333         62.4516         15.4493        -10.9279
            8691         60.0173         62.8229         14.3550        -10.8183
            8692         60.5630         63.1647         13.2463        -10.6354
            8693         61.0575         63.4657         12.1470        -10.3842
            8694         61.4920         63.7176         11.0777        -10.0740
            8695         61.8619         63.9156         10.0545        -9.71662
            8696         62.1665         64.0580         9.08863        -9.32462
            8697         62.4080         64.1460         8.18698        -8.91047
            8698         62.5907         64.1829         7.35272        -8.48553
            8699         62.7200         64.1732         6.58608        -8.05962
            8700         62.8020         64.1224         5.88512        -7.64082
            8701         62.8429         64.0361         5.24651        -7.23550
            8702         62.8487         63.9197         4.66602        -6.84848
            8703         62.8248         63.7786         4.13900        -6.48319
            8704         62.7762         63.6173         3.66069        -6.14195
            8705         62.7072         63.4400         3.22642        -5.82618
            8706         62.6215         63.2502         2.83175        -5.53657
            8707         62.5225         63.0509         2.47253        -5.27328
            8708         62.4126         62.8447         2.14499        -5.03608
            8709         62.2943         62.6335         1.84570        -4.82443
            8710         62.1693         62.4190         1.57157        -4.63762
            8711         62.0392         62.2025         1.31985        -4.47479
            8712         61.9051         61.9849         1.08810        -4.33501
            8713         61.7681         61.7670     874.150E-03        -4.21732
            8714         61.6288         61.5494     676.081E-03        -4.12072
            8715         61.4880         61.3323     492.207E-03        -4.04427
            8716         61.3460         61.1159     321.041E-03        -3.98700
            8717         61.2032         60.9005     161.274E-03        -3.94800
            8718         61.0598         60.6858     11.7561E-03        -3.92640
            8719         60.9161         60.4719    -128.523E-03        -3.92136
            8720         60.7721         60.2586    -260.449E-03        -3.93208
            8721         60.6278         60.0457    -384.796E-03        -3.95782
            8722         60.4834         59.8330    -502.243E-03        -3.99785
            8723         60.3387         59.6202    -613.378E-03        -4.05150
            8724         60.1938         59.4071    -718.714E-03        -4.11813
            8725         60.0485         59.1933    -818.692E-03        -4.19712
            8726         59.9029         58.9786    -913.691E-03        -4.28788
            8727         59.7568         58.7626        -1.00403        -4.38986
            8728         59.6101         58.5452        -1.08999        -4.50252
            8729         59.4627         58.3260        -1.17177        -4.62533
            8730         59.3146         58.1047        -1.24957        -4.75779
            8731         59.1657         57.8810        -1.32351        -4.89940
            8732         59.0158         57.6548        -1.39369        -5.04968
            8733         58.8648         57.4257        -1.46017        -5.20813
            8734         58.7127         57.1936        -1.52298        -5.37428
            8735         58.5592         56.9582        -1.58210        -5.54764
            8736         58.4043         56.7194        -1.63749        -5.72772
            8737         58.2479         56.4769        -1.68909        -5.91402
            8738         58.0897         56.2307        -1.73677        -6.10604
            8739         57.9298         55.9806        -1.78041        -6.30323
            8740         57.7677         55.7265        -1.81983        -6.50508
            8741         57.6035         55.4683        -1.85483        -6.71100
            8742         57.4369         55.2059        -1.88517        -6.92041
            8743         57.2676         54.9394        -1.91060        -7.13271
            8744         57.0954         54.6686        -1.93079        -7.34723
            8745         56.9199         54.3936        -1.94542        -7.56331
            8746         56.7409         54.1144        -1.95411        -7.78022
            8747         56.5579         53.8311        -1.95646        -7.99721
            8748         56.3706         53.5437        -1.95201        -8.21349
            8749         56.1783         53.2524        -1.94028        -8.42820
            8750         55.9807         52.9571        -1.92074        -8.64044
            8751         55.7770         52.6582        -1.89283        -8.84928
            8752         55.5665         52.3557        -1.85592        -9.05370
            8753         55.3486         52.0498        -1.80938        -9.25264
            8754         55.1223         51.7407        -1.75249        -9.44498
            8755         54.8868         51.4286        -1.68452        -9.62951
            8756         54.6410         51.1138        -1.60468        -9.80500
            8757         54.3838         50.7965        -1.51213        -9.97010
            8758         54.1140         50.4770        -1.40601        -10.1234
            8759         53.8304         50.1555        -1.28539        -10.2635
            8760         53.5316         49.8323        -1.14933        -10.3888
            8761         53.2162         49.5078    -996.834E-03        -10.4977
            8762         52.8826         49.1821    -826.896E-03        -10.5884
            8763         52.5294         48.8556    -638.483E-03        -10.6593
            8764         52.1548         48.5286    -430.556E-03        -10.7085
            8765         51.7573         48.2013    -202.086E-03        -10.7342
            8766         51.3353         47.8742     47.9343E-03        -10.7342
            8767         50.8874         47.5475     320.456E-03        -10.7066
            8768         50.4120         47.2215     616.358E-03        -10.6494
            8769         49.9080         46.8966     936.400E-03        -10.5603
            8770         49.3744         46.5731         1.28119        -10.4372
            8771         48.8105         46.2516         1.65111        -10.2777
            8772         48.2160         45.9325         2.04629        -10.0797
            8773         47.5913         45.6164         2.46648        -9.84055
            8774         46.9374         45.3041         2.91101        -9.55789
            8775         46.2560         44.9967         3.37869        -9.22905
            8776         45.5499         44.6953         3.86766        -8.85117
            8777         44.8232         44.4016         4.37534        -8.42115
            8778         44.0813         44.1175         4.89827        -7.93546
            8779         43.3313         43.8455         5.43202        -7.39004
            8780         42.5823         43.5886         5.97112        -6.78008
            8781         41.8458         43.3503         6.50904        -6.09979
            8782         41.1361         43.1349         7.03819        -5.34210
            8783         40.4711         42.9471         7.55002        -4.49834
            8784         39.8729         42.7919         8.03529        -3.55786
            8785         39.3691         42.6748         8.48437        -2.50777
            8786         38.9941         42.6010         8.88772        -1.33249
            8787         38.7910         42.5755         9.23629    -12.9605E-03
            8788         58.1709         61.6828         18.5147        -11.2300
            8789         58.8021         62.0830         17.5588        -11.3310
            8790         59.4489         62.4946         16.5006        -11.3655
            8791         60.0866         62.9015         15.3678        -11.3179
            8792         60.6917         63.2861         14.1920        -11.1817
            8793         61.2444         63.6323         13.0057        -10.9582
            8794         61.7304         63.9267         11.8380        -10.6561
            8795         62.1413         64.1605         10.7130        -10.2884
            8796         62.4742         64.3297         9.64831        -9.87085
            8797         62.7309         64.4342         8.65511        -9.41947
            8798         62.9165         64.4773         7.73921        -8.94930
            8799         63.0378         64.4645         6.90202        -8.47342
            8800         63.1028         64.4024         6.14173        -8.00260
            8801         63.1196         64.2981         5.45441        -7.54524
            8802         63.0958         64.1588         4.83487        -7.10761
            8803         63.0385         63.9909         4.27731        -6.69408
            8804         62.9540         63.8004         3.77579        -6.30753
            8805         62.8477         63.5924         3.32448        -5.94962
            8806         62.7241         63.3713         2.91791        -5.62109
            8807         62.5872         63.1407         2.55105        -5.32202
            8808         62.4400         62.9036         2.21933        -5.05198
            8809         62.2851         62.6623         1.91864        -4.81020
            8810         62.1245         62.4186         1.64535        -4.59572
            8811         61.9599         62.1741         1.39625        -4.40741
            8812         61.7926         61.9297         1.16851        -4.24410
            8813         61.6235         61.6862     959.660E-03        -4.10458
            8814         61.4533         61.4441     767.524E-03        -3.98765
            8815         61.2826         61.2036     590.207E-03        -3.89214
            8816         61.1118         60.9650     426.056E-03        -3.81693
            8817         60.9410         60.7282     273.624E-03        -3.76095
            8818         60.7705         60.4931     131.650E-03        -3.72319
            8819         60.6002         60.2594    -967.461E-06        -3.70268
            8820         60.4303         60.0271    -125.190E-03        -3.69854
            8821         60.2605         59.7956    -241.855E-03        -3.70992
            8822         60.0909         59.5648    -351.691E-03        -3.73603
            8823         59.9213         59.3343    -455.334E-03        -3.77612
            8824         59.7515         59.1036    -553.333E-03        -3.82952
            8825         59.5814         58.8724    -646.166E-03        -3.89555
            8826         59.4109         58.6403    -734.241E-03        -3.97361
            8827         59.2397         58.4070    -817.908E-03        -4.06311
            8828         59.0677         58.1720    -897.465E-03        -4.16349
            8829         58.8948         57.9350    -973.160E-03        -4.27422
            8830         58.7207         57.6956        -1.04520        -4.39480
            8831         58.5452         57.4534        -1.11374        -4.52471
            8832         58.3683         57.2082        -1.17891        -4.66349
            8833         58.1897         56.9597        -1.24079        -4.81065
            8834         58.0094         56.7075        -1.29946        -4.96574
            8835         57.8271         56.4513        -1.35492        -5.12829
            8836         57.6427         56.1910        -1.40718        -5.29783
            8837         57.4560         55.9262        -1.45619        -5.47389
            8838         57.2670         55.6569        -1.50190        -5.65599
            8839         57.0754         55.3827        -1.54420        -5.84365
            8840         56.8811         55.1036        -1.58298        -6.03636
            8841         56.6839         54.8194        -1.61808        -6.23360
            8842         56.4836         54.5300        -1.64933        -6.43485
            8843         56.2801         54.2353        -1.67650        -6.63952
            8844         56.0731         53.9352        -1.69938        -6.84703
            8845         55.8625         53.6298        -1.71767        -7.05676
            8846         55.6478         53.3190        -1.73109        -7.26805
            8847         55.4290         53.0028        -1.73929        -7.48022
            8848         55.2055         52.6813        -1.74191        -7.69254
            8849         54.9771         52.3546        -1.73855        -7.90422
            8850         54.7433         52.0228        -1.72876        -8.11445
            8851         54.5037         51.6861        -1.71208        -8.32235
            8852         54.2577         51.3445        -1.68798        -8.52701
            8853         54.0048         50.9983        -1.65592        -8.72744
            8854         53.7442         50.6476        -1.61530        -8.92260
            8855         53.4753         50.2928        -1.56549        -9.11138
            8856         53.1972         49.9342        -1.50580        -9.29262
            8857         52.9090         49.5719        -1.43553        -9.46508
            8858         52.6097         49.2063        -1.35391        -9.62744
            8859         52.2982         48.8378        -1.26014        -9.77833
            8860         51.9735         48.4666        -1.15338        -9.91628
            8861         51.6342         48.0933        -1.03275        -10.0398
            8862         51.2790         47.7180    -897.335E-03        -10.1472
            8863         50.9065         47.3414    -746.202E-03        -10.2369
            8864         50.5152         46.9636    -578.389E-03        -10.3070
            8865         50.1036         46.5853    -392.931E-03        -10.3558
            8866         49.6703         46.2067    -188.863E-03        -10.3814
            8867         49.2136         45.8283     34.7585E-03        -10.3818
            8868         48.7322         45.4505     278.826E-03        -10.3549
            8869         48.2246         45.0738     544.163E-03        -10.2988
            8870         47.6896         44.6987     831.481E-03        -10.2112
            8871         47.1263         44.3255         1.14134        -10.0900
            8872         46.5340         43.9550         1.47407        -9.93307
            8873         45.9125         43.5876         1.82975        -9.73808
            8874         45.2621         43.2240         2.20807        -9.50279
            8875         44.5839         42.8652         2.60826        -9.22487
            8876         43.8796         42.5121         3.02901        -8.90189
            8877         43.1523         42.1662         3.46825        -8.53133
            8878         42.4062         41.8289         3.92311        -8.11043
            8879         41.6471         41.5025         4.38970        -7.63616
            8880         40.8824         41.1896         4.86300        -7.10500
            8881         40.1219         40.8935         5.33672        -6.51276
            8882         39.3778         40.6181         5.80320        -5.85432
            8883         38.6652         40.3682         6.25339        -5.12327
            8884         38.0031         40.1493         6.67693        -4.31153
            8885         37.4149         39.9675         7.06234        -3.40893
            8886         36.9296         39.8295         7.39737        -2.40275
            8887         36.5833         39.7419         7.66955        -1.27722
            8888         36.4210         39.7114         7.86652    -12.5795E-03
            8889         58.7947         62.1473         18.6561        -11.6320
            8890         59.4735         62.5720         17.6360        -11.7521
            8891         60.1667         63.0097         16.4931        -11.7899
            8892         60.8414         63.4391         15.2638        -11.7260
            8893         61.4683         63.8377         13.9899        -11.5538
            8894         62.0238         64.1851         12.7127        -11.2780
            8895         62.4927         64.4663         11.4679        -10.9119
            8896         62.8679         64.6726         10.2832        -10.4742
            8897         63.1499         64.8015         9.17709        -9.98567
            8898         63.3441         64.8557         8.16000        -9.46656
            8899         63.4595         64.8416         7.23545        -8.93463
            8900         63.5064         64.7674         6.40211        -8.40454
            8901         63.4957         64.6425         5.65538        -7.88764
            8902         63.4374         64.4759         4.98877        -7.39224
            8903         63.3410         64.2762         4.39489        -6.92402
            8904         63.2145         64.0510         3.86617        -6.48658
            8905         63.0647         63.8067         3.39525        -6.08187
            8906         62.8973         63.5489         2.97528        -5.71065
            8907         62.7169         63.2818         2.60003        -5.37280
            8908         62.5273         63.0091         2.26393        -5.06763
            8909         62.3314         62.7335         1.96204        -4.79402
            8910         62.1314         62.4570         1.69004        -4.55065
            8911         61.9291         62.1814         1.44416        -4.33604
            8912         61.7258         61.9075         1.22112        -4.14868
            8913         61.5224         61.6362         1.01810        -3.98705
            8914         61.3195         61.3680     832.634E-03        -3.84968
            8915         61.1177         61.1029     662.598E-03        -3.73515
            8916         60.9172         60.8411     506.156E-03        -3.64212
            8917         60.7179         60.5824     361.719E-03        -3.56933
            8918         60.5201         60.3266     227.909E-03        -3.51559
            8919         60.3235         60.0733     103.534E-03        -3.47981
            8920         60.1280         59.8222    -12.4387E-03        -3.46098
            8921         59.9334         59.5728    -120.907E-03        -3.45814
            8922         59.7394         59.3246    -222.647E-03        -3.47042
            8923         59.5459         59.0772    -318.334E-03        -3.49702
            8924         59.3525         58.8301    -408.549E-03        -3.53717
            8925         59.1590         58.5828    -493.798E-03        -3.59018
            8926         58.9650         58.3348    -574.514E-03        -3.65539
            8927         58.7704         58.0856    -651.071E-03        -3.73219
            8928         58.5748         57.8346    -723.786E-03        -3.82000
            8929         58.3779         57.5815    -792.929E-03        -3.91828
            8930         58.1795         57.3259    -858.723E-03        -4.02650
            8931         57.9794         57.0671    -921.353E-03        -4.14417
            8932         57.7772         56.8050    -980.967E-03        -4.27082
            8933         57.5729         56.5389        -1.03768        -4.40598
            8934         57.3661         56.2687        -1.09157        -4.54920
            8935         57.1566         55.9939        -1.14268        -4.70004
            8936         56.9443         55.7142        -1.19106        -4.85804
            8937         56.7290         55.4294        -1.23668        -5.02277
            8938         56.5105         55.1391        -1.27952        -5.19379
            8939         56.2886         54.8431        -1.31952        -5.37064
            8940         56.0631         54.5412        -1.35660        -5.55285
            8941         55.8339         54.2332        -1.39065        -5.73996
            8942         55.6009         53.9189        -1.42155        -5.93147
            8943         55.3638         53.5982        -1.44912        -6.12686
            8944         55.1225         53.2710        -1.47319        -6.32561
            8945         54.8767         52.9372        -1.49354        -6.52714
            8946         54.6264         52.5968        -1.50994        -6.73087
            8947         54.3712         52.2498        -1.52212        -6.93618
            8948         54.1109         51.8962        -1.52978        -7.14240
            8949         53.8453         51.5360        -1.53260        -7.34883
            8950         53.5740         51.1694        -1.53021        -7.55473
            8951         53.2967         50.7964        -1.52223        -7.75930
            8952         53.0130         50.4172        -1.50824        -7.96172
            8953         52.7225         50.0321        -1.48777        -8.16107
            8954         52.4248         49.6411        -1.46033        -8.35643
            8955         52.1191         49.2446        -1.42540        -8.54676
            8956         51.8050         48.8429        -1.38239        -8.73099
            8957         51.4817         48.4363        -1.33070        -8.90800
            8958         51.1484         48.0252        -1.26969        -9.07655
            8959         50.8043         47.6098        -1.19866        -9.23537
            8960         50.4485         47.1908        -1.11689        -9.38311
            8961         50.0799         46.7684        -1.02361        -9.51832
            8962         49.6974         46.3431    -918.026E-03        -9.63949
            8963         49.2998         45.9155    -799.297E-03        -9.74504
            8964         48.8859         45.4861    -666.563E-03        -9.83328
            8965         48.4542         45.0553    -518.939E-03        -9.90249
            8966         48.0034         44.6238    -355.529E-03        -9.95084
            8967         47.5322         44.1920    -175.436E-03        -9.97643
            8968         47.0389         43.7606     22.2190E-03        -9.97732
            8969         46.5223         43.3301     238.276E-03        -9.95148
            8970         45.9810         42.9011     473.510E-03        -9.89687
            8971         45.4139         42.4741     728.593E-03        -9.81137
            8972         44.8200         42.0499         1.00405        -9.69284
            8973         44.1987         41.6290         1.30020        -9.53915
            8974         43.5498         41.2122         1.61708        -9.34812
            8975         42.8735         40.8003         1.95437        -9.11759
            8976         42.1710         40.3941         2.31127        -8.84540
            8977         41.4441         39.9949         2.68638        -8.52934
            8978         40.6960         39.6038         3.07754        -8.16720
            8979         39.9310         39.2228         3.48167        -7.75663
            8980         39.1551         38.8538         3.89457        -7.29508
            8981         38.3763         38.4997         4.31069        -6.77967
            8982         37.6049         38.1640         4.72300        -6.20695
            8983         36.8538         37.8510         5.12278        -5.57261
            8984         36.1392         37.5660         5.49952        -4.87112
            8985         35.4810         37.3153         5.84094        -4.09525
            8986         34.9041         37.1060         6.13312        -3.23552
            8987         34.4392         36.9461         6.36087        -2.27968
            8988         34.1241         36.8440         6.50832        -1.21197
            8989         34.0063         36.8081         6.55923    -12.0352E-03
            8990         59.5149         62.7041         18.8259        -12.0591
            8991         60.2527         63.1590         17.7262        -12.2022
            8992         61.0020         63.6285         16.4771        -12.2417
            8993         61.7192         64.0838         15.1284        -12.1538
            8994         62.3668         64.4956         13.7359        -11.9327
            8995         62.9172         64.8386         12.3525        -11.5882
            8996         63.3553         65.0962         11.0220        -11.1413
            8997         63.6777         65.2609         9.77529        -10.6184
            8998         63.8897         65.3335         8.63086        -10.0469
            8999         64.0027         65.3211         7.59640        -9.45161
            9000         64.0305         65.2341         6.67176        -8.85303
            9001         63.9878         65.0848         5.85160        -8.26691
            9002         63.8886         64.8852         5.12765        -7.70454
            9003         63.7452         64.6467         4.49028        -7.17346
            9004         63.5683         64.3792         3.92963        -6.67819
            9005         63.3667         64.0911         3.43620        -6.22104
            9006         63.1476         63.7891         3.00129        -5.80269
            9007         62.9165         63.4788         2.61706        -5.42271
            9008         62.6780         63.1643         2.27664        -5.07996
            9009         62.4353         62.8489         1.97402        -4.77282
            9010         62.1909         62.5350         1.70404        -4.49948
            9011         61.9466         62.2242         1.46225        -4.25796
            9012         61.7039         61.9175         1.24486        -4.04631
            9013         61.4634         61.6158         1.04861        -3.86261
            9014         61.2257         61.3192     870.732E-03        -3.70503
            9015         60.9912         61.0279     708.845E-03        -3.57184
            9016         60.7598         60.7418     560.922E-03        -3.46143
            9017         60.5314         60.4604     425.222E-03        -3.37231
            9018         60.3059         60.1835     300.255E-03        -3.30311
            9019         60.0830         59.9105     184.740E-03        -3.25256
            9020         59.8624         59.6409     77.5752E-03        -3.21950
            9021         59.6436         59.3740    -22.1881E-03        -3.20287
            9022         59.4263         59.1092    -115.368E-03        -3.20170
            9023         59.2101         58.8460    -202.670E-03        -3.21509
            9024         58.9944         58.5836    -284.703E-03        -3.24223
            9025         58.7789         58.3215    -361.991E-03        -3.28237
            9026         58.5632         58.0590    -434.986E-03        -3.33480
            9027         58.3469         57.7954    -504.077E-03        -3.39888
            9028         58.1295         57.5303    -569.596E-03        -3.47402
            9029         57.9107         57.2630    -631.826E-03        -3.55964
            9030         57.6900         56.9930    -691.005E-03        -3.65523
            9031         57.4673         56.7197    -747.331E-03        -3.76029
            9032         57.2420         56.4426    -800.969E-03        -3.87434
            9033         57.0140         56.1613    -852.049E-03        -3.99693
            9034         56.7828         55.8753    -900.670E-03        -4.12762
            9035         56.5483         55.5841    -946.906E-03        -4.26598
            9036         56.3102         55.2874    -990.802E-03        -4.41159
            9037         56.0682         54.9848        -1.03238        -4.56404
            9038         55.8222         54.6759        -1.07164        -4.72292
            9039         55.5718         54.3605        -1.10855        -4.88779
            9040         55.3169         54.0382        -1.14306        -5.05825
            9041         55.0573         53.7088        -1.17511        -5.23385
            9042         54.7929         53.3721        -1.20460        -5.41416
            9043         54.5234         53.0278        -1.23142        -5.59870
            9044         54.2488         52.6759        -1.25543        -5.78700
            9045         53.9687         52.3162        -1.27646        -5.97855
            9046         53.6831         51.9486        -1.29434        -6.17282
            9047         53.3918         51.5730        -1.30885        -6.36926
            9048         53.0947         51.1894        -1.31977        -6.56728
            9049         52.7914         50.7979        -1.32683        -6.76624
            9050         52.4819         50.3985        -1.32976        -6.96549
            9051         52.1658         49.9913        -1.32823        -7.16432
            9052         51.8430         49.5764        -1.32190        -7.36197
            9053         51.5131         49.1540        -1.31041        -7.55764
            9054         51.1757         48.7243        -1.29335        -7.75048
            9055         50.8306         48.2875        -1.27028        -7.93956
            9056         50.4772         47.8441        -1.24073        -8.12393
            9057         50.1152         47.3942        -1.20421        -8.30252
            9058         49.7438         46.9383        -1.16016        -8.47426
            9059         49.3625         46.4768        -1.10802        -8.63795
            9060         48.9707         46.0102        -1.04717        -8.79235
            9061         48.5674         45.5389    -976.958E-03        -8.93613
            9062         48.1519         45.0635    -896.697E-03        -9.06789
            9063         47.7232         44.5846    -805.667E-03        -9.18616
            9064         47.2803         44.1027    -703.111E-03        -9.28935
            9065         46.8220         43.6186    -588.248E-03        -9.37583
            9066         46.3472         43.1328    -460.269E-03        -9.44387
            9067         45.8546         42.6461    -318.352E-03        -9.49167
            9068         45.3428         42.1591    -161.671E-03        -9.51736
            9069         44.8108         41.6727     10.5932E-03        -9.51898
            9070         44.2570         41.1875     199.224E-03        -9.49455
            9071         43.6803         40.7042     404.953E-03        -9.44200
            9072         43.0796         40.2238     628.421E-03        -9.35925
            9073         42.4540         39.7468     870.133E-03        -9.24419
            9074         41.8029         39.2742         1.13040        -9.09470
            9075         41.1260         38.8067         1.40928        -8.90868
            9076         40.4238         38.3453         1.70646        -8.68406
            9077         39.6971         37.8910         2.02116        -8.41880
            9078         38.9480         37.4450         2.35199        -8.11093
            9079         38.1796         37.0085         2.69677        -7.75849
            9080         37.3964         36.5835         3.05233        -7.35956
            9081         36.6047         36.1720         3.41426        -6.91212
            9082         35.8126         35.7768         3.77667        -6.41397
            9083         35.0311         35.4017         4.13190        -5.86248
            9084         34.2738         35.0510         4.47025        -5.25435
            9085         33.5579         34.7307         4.77981        -4.58513
            9086         32.9045         34.4476         5.04631        -3.84874
            9087         32.3400         34.2100         5.25325        -3.03673
            9088         31.8967         34.0274         5.38215        -2.13766
            9089         31.6149         33.9100         5.41320        -1.13612
            9090         31.5447         33.8685         5.32546    -11.3496E-03
            9091         60.3535         63.3752         19.0309        -12.5172
            9092         61.1650         63.8676         17.8308        -12.6881
            9093         61.9829         64.3760         16.4470        -12.7266
            9094         62.7478         64.8608         14.9486        -12.6027
            9095         63.4116         65.2827         13.4118        -12.3136
            9096         63.9429         65.6111         11.9055        -11.8782
            9097         64.3293         65.8284         10.4821        -11.3288
            9098         64.5741         65.9309         9.17474        -10.7028
            9099         64.6909         65.9253         7.99930        -10.0355
            9100         64.6989         65.8250         6.95836        -9.35646
            9101         64.6185         65.6462         6.04594        -8.68830
            9102         64.4691         65.4056         5.25123        -8.04683
            9103         64.2679         65.1186         4.56137        -7.44225
            9104         64.0292         64.7983         3.96314        -6.88037
            9105         63.7646         64.4558         3.44403        -6.36385
            9106         63.4831         64.0999         2.99271        -5.89313
            9107         63.1917         63.7372         2.59920        -5.46725
            9108         62.8956         63.3729         2.25490        -5.08435
            9109         62.5987         63.0107         1.95246        -4.74210
            9110         62.3036         62.6532         1.68565        -4.43794
            9111         62.0121         62.3021         1.44921        -4.16925
            9112         61.7256         61.9584         1.23873        -3.93347
            9113         61.4445         61.6227         1.05049        -3.72816
            9114         61.1693         61.2952     881.340E-03        -3.55104
            9115         60.9000         60.9756     728.653E-03        -3.40000
            9116         60.6363         60.6636     590.196E-03        -3.27310
            9117         60.3779         60.3587     464.080E-03        -3.16856
            9118         60.1245         60.0602     348.705E-03        -3.08479
            9119         59.8753         59.7673     242.707E-03        -3.02033
            9120         59.6299         59.4794     144.928E-03        -2.97386
            9121         59.3877         59.1955     54.3737E-03        -2.94419
            9122         59.1480         58.9149    -29.8029E-03        -2.93024
            9123         58.9102         58.6368    -108.330E-03        -2.93102
            9124         58.6738         58.3604    -181.833E-03        -2.94565
            9125         58.4380         58.0849    -250.847E-03        -2.97331
            9126         58.2024         57.8094    -315.834E-03        -3.01327
            9127         57.9664         57.5333    -377.189E-03        -3.06485
            9128         57.7293         57.2558    -435.250E-03        -3.12742
            9129         57.4908         56.9762    -490.308E-03        -3.20040
            9130         57.2502         56.6938    -542.606E-03        -3.28327
            9131         57.0072         56.4081    -592.352E-03        -3.37551
            9132         56.7613         56.1184    -639.719E-03        -3.47667
            9133         56.5120         55.8240    -684.846E-03        -3.58629
            9134         56.2590         55.5246    -727.846E-03        -3.70395
            9135         56.0020         55.2195    -768.807E-03        -3.82923
            9136         55.7405         54.9082    -807.791E-03        -3.96174
            9137         55.4743         54.5904    -844.838E-03        -4.10109
            9138         55.2031         54.2655    -879.966E-03        -4.24690
            9139         54.9266         53.9333    -913.174E-03        -4.39877
            9140         54.6445         53.5932    -944.441E-03        -4.55633
            9141         54.3567         53.2451    -973.724E-03        -4.71918
            9142         54.0628         52.8886        -1.00097        -4.88692
            9143         53.7628         52.5234        -1.02609        -5.05913
            9144         53.4565         52.1494        -1.04899        -5.23539
            9145         53.1436         51.7663        -1.06955        -5.41526
            9146         52.8240         51.3740        -1.08764        -5.59825
            9147         52.4976         50.9725        -1.10310        -5.78389
            9148         52.1642         50.5615        -1.11575        -5.97165
            9149         51.8237         50.1411        -1.12539        -6.16098
            9150         51.4759         49.7113        -1.13180        -6.35130
            9151         51.1208         49.2721        -1.13474        -6.54197
            9152         50.7580         48.8237        -1.13393        -6.73233
            9153         50.3875         48.3662        -1.12909        -6.92168
            9154         50.0090         47.8997        -1.11989        -7.10925
            9155         49.6224         47.4246        -1.10598        -7.29423
            9156         49.2273         46.9410        -1.08698        -7.47575
            9157         48.8234         46.4493        -1.06249        -7.65289
            9158         48.4104         45.9500        -1.03207        -7.82465
            9159         47.9879         45.4434    -995.244E-03        -7.98997
            9160         47.5555         44.9300    -951.514E-03        -8.14772
            9161         47.1125         44.4104    -900.339E-03        -8.29671
            9162         46.6585         43.8852    -841.146E-03        -8.43564
            9163         46.1926         43.3549    -773.328E-03        -8.56316
            9164         45.7143         42.8204    -696.245E-03        -8.67783
            9165         45.2225         42.2822    -609.225E-03        -8.77812
            9166         44.7165         41.7412    -511.566E-03        -8.86242
            9167         44.1953         41.1982    -402.542E-03        -8.92903
            9168         43.6576         40.6541    -281.409E-03        -8.97619
            9169         43.1026         40.1097    -147.411E-03        -9.00204
            9170         42.5289         39.5659     203.133E-06        -9.00466
            9171         41.9355         39.0238     162.162E-03        -8.98206
            9172         41.3213         38.4842     339.152E-03        -8.93220
            9173         40.6852         37.9481     531.785E-03        -8.85300
            9174         40.0265         37.4165     740.556E-03        -8.74238
            9175         39.3445         36.8903     965.790E-03        -8.59823
            9176         38.6391         36.3707         1.20757        -8.41850
            9177         37.9105         35.8586         1.46564        -8.20118
            9178         37.1599         35.3552         1.73930        -7.94435
            9179         36.3892         34.8617         2.02724        -7.64619
            9180         35.6013         34.3796         2.32735        -7.30503
            9181         34.8009         33.9106         2.63651        -6.91930
            9182         33.9944         33.4569         2.95027        -6.48751
            9183         33.1904         33.0211         3.26255        -6.00818
            9184         32.3999         32.6070         3.56524        -5.47962
            9185         31.6375         32.2192         3.84787        -4.89966
            9186         30.9211         31.8638         4.09722        -4.26519
            9187         30.2733         31.5484         4.29709        -3.57159
            9188         29.7218         31.2823         4.42824        -2.81188
            9189         29.3011         31.0763         4.46856        -1.97588
            9190         29.0536         30.9428         4.39374        -1.04899
            9191         29.0329         30.8953         4.17718    -10.4035E-03
            9192         61.3400         64.1902         19.2805        -13.0140
            9193         62.2452         64.7301         17.9514        -13.2191
            9194         63.1476         65.2867         16.3927        -13.2509
            9195         63.9640         65.8037         14.7042        -13.0721
            9196         64.6327         66.2282         12.9920        -12.6868
            9197         65.1208         66.5233         11.3456        -12.1298
            9198         65.4234         66.6742         9.82611        -11.4509
            9199         65.5558         66.6846         8.46557        -10.7016
            9200         65.5442         66.5712         7.27299        -9.92631
            9201         65.4182         66.3562         6.24222        -9.15861
            9202         65.2059         66.0632         5.35881        -8.42154
            9203         64.9315         65.7136         4.60495        -7.72930
            9204         64.6150         65.3259         3.96242        -7.08945
            9205         64.2718         64.9146         3.41423        -6.50492
            9206         63.9137         64.4911         2.94534        -5.97564
            9207         63.5491         64.0639         2.54280        -5.49967
            9208         63.1843         63.6391         2.19573        -5.07406
            9209         62.8236         63.2209         1.89500        -4.69538
            9210         62.4697         62.8120         1.63310        -4.36001
            9211         62.1244         62.4141         1.40379        -4.06444
            9212         61.7886         62.0282         1.20192        -3.80530
            9213         61.4627         61.6544         1.02325        -3.57946
            9214         61.1467         61.2926     864.269E-03        -3.38409
            9215         60.8401         60.9423     722.051E-03        -3.21658
            9216         60.5424         60.6027     594.171E-03        -3.07461
            9217         60.2530         60.2729     478.600E-03        -2.95609
            9218         59.9710         59.9521     373.640E-03        -2.85914
            9219         59.6956         59.6392     277.860E-03        -2.78209
            9220         59.4258         59.3331     190.056E-03        -2.72345
            9221         59.1609         59.0328     109.208E-03        -2.68187
            9222         58.9000         58.7372     34.4489E-03        -2.65616
            9223         58.6421         58.4453    -34.9577E-03        -2.64525
            9224         58.3865         58.1561    -99.6408E-03        -2.64817
            9225         58.1323         57.8686    -160.138E-03        -2.66405
            9226         57.8788         57.5819    -216.908E-03        -2.69211
            9227         57.6252         57.2950    -270.345E-03        -2.73164
            9228         57.3708         57.0070    -320.785E-03        -2.78198
            9229         57.1150         56.7172    -368.515E-03        -2.84256
            9230         56.8571         56.4248    -413.781E-03        -2.91281
            9231         56.5965         56.1289    -456.788E-03        -2.99225
            9232         56.3326         55.8288    -497.713E-03        -3.08041
            9233         56.0649         55.5240    -536.699E-03        -3.17684
            9234         55.7930         55.2136    -573.864E-03        -3.28113
            9235         55.5162         54.8972    -609.305E-03        -3.39289
            9236         55.2343         54.5740    -643.092E-03        -3.51175
            9237         54.9468         54.2436    -675.279E-03        -3.63734
            9238         54.6532         53.9055    -705.900E-03        -3.76931
            9239         54.3534         53.5592    -734.970E-03        -3.90729
            9240         54.0469         53.2042    -762.489E-03        -4.05095
            9241         53.7335         52.8402    -788.437E-03        -4.19992
            9242         53.4128         52.4667    -812.781E-03        -4.35386
            9243         53.0848         52.0835    -835.472E-03        -4.51239
            9244         52.7490         51.6903    -856.443E-03        -4.67514
            9245         52.4054         51.2867    -875.613E-03        -4.84172
            9246         52.0538         50.8727    -892.884E-03        -5.01172
            9247         51.6940         50.4479    -908.141E-03        -5.18471
            9248         51.3259         50.0123    -921.253E-03        -5.36024
            9249         50.9494         49.5658    -932.071E-03        -5.53783
            9250         50.5643         49.1083    -940.428E-03        -5.71697
            9251         50.1706         48.6399    -946.138E-03        -5.89713
            9252         49.7681         48.1606    -948.994E-03        -6.07771
            9253         49.3567         47.6704    -948.771E-03        -6.25811
            9254         48.9364         47.1695    -945.220E-03        -6.43765
            9255         48.5071         46.6582    -938.070E-03        -6.61564
            9256         48.0685         46.1366    -927.026E-03        -6.79131
            9257         47.6206         45.6051    -911.769E-03        -6.96385
            9258         47.1633         45.0641    -891.951E-03        -7.13238
            9259         46.6963         44.5140    -867.199E-03        -7.29597
            9260         46.2193         43.9552    -837.111E-03        -7.45361
            9261         45.7321         43.3883    -801.255E-03        -7.60423
            9262         45.2344         42.8140    -759.168E-03        -7.74668
            9263         44.7258         42.2329    -710.357E-03        -7.87975
            9264         44.2058         41.6458    -654.295E-03        -8.00212
            9265         43.6738         41.0534    -590.427E-03        -8.11241
            9266         43.1294         40.4566    -518.165E-03        -8.20914
            9267         42.5717         39.8565    -436.893E-03        -8.29076
            9268         42.0001         39.2538    -345.970E-03        -8.35562
            9269         41.4137         38.6497    -244.731E-03        -8.40199
            9270         40.8117         38.0453    -132.501E-03        -8.42805
            9271         40.1931         37.4416    -8.59956E-03        -8.43191
            9272         39.5571         36.8399     127.643E-03        -8.41161
            9273         38.9025         36.2414     276.864E-03        -8.36512
            9274         38.2287         35.6472     439.646E-03        -8.29041
            9275         37.5350         35.0586     616.475E-03        -8.18536
            9276         36.8207         34.4768     807.693E-03        -8.04792
            9277         36.0858         33.9031         1.01343        -7.87603
            9278         35.3306         33.3388         1.23352        -7.66773
            9279         34.5562         32.7851         1.46738        -7.42116
            9280         33.7643         32.2434         1.71386        -7.13465
            9281         32.9580         31.7153         1.97102        -6.80670
            9282         32.1418         31.2025         2.23592        -6.43609
            9283         31.3222         30.7070         2.50426        -6.02182
            9284         30.5077         30.2315         2.76998        -5.56310
            9285         29.7100         29.7796         3.02481        -5.05922
            9286         28.9439         29.3559         3.25772        -4.50929
            9287         28.2282         28.9664         3.45445        -3.91180
            9288         27.5867         28.6194         3.59696        -3.26395
            9289         27.0487         28.3249         3.66325        -2.56073
            9290         26.6506         28.0954         3.62733        -1.79381
            9291         26.4375         27.9455         3.45973    -950.042E-03
            9292         26.4669         27.8916         3.12725    -9.19622E-03
            9293         62.5155         65.1908         19.5878        -13.5600
            9294         63.5426         65.7921         18.0887        -13.8076
            9295         64.5493         66.4091         16.2977        -13.8220
            9296         65.4166         66.9583         14.3643        -13.5572
            9297         66.0666         67.3682         12.4398        -13.0335
            9298         66.4706         67.5980         10.6390        -12.3132
            9299         66.6406         67.6412         9.02855        -11.4720
            9300         66.6125         67.5169         7.63230        -10.5790
            9301         66.4303         67.2565         6.44567        -9.68710
            9302         66.1364         66.8944         5.44883        -8.83121
            9303         65.7667         66.4621         4.61605        -8.03188
            9304         65.3495         65.9856         3.92124        -7.29904
            9305         64.9059         65.4850         3.34062        -6.63567
            9306         64.4513         64.9753         2.85368        -6.04052
            9307         63.9964         64.4670         2.44334        -5.51000
            9308         63.5481         63.9675         2.09558        -5.03938
            9309         63.1112         63.4812         1.79907        -4.62353
            9310         62.6884         63.0111         1.54463        -4.25736
            9311         62.2809         62.5585         1.32490        -3.93606
            9312         61.8894         62.1238         1.13390        -3.65521
            9313         61.5135         61.7069     966.827E-03        -3.41082
            9314         61.1527         61.3069     819.766E-03        -3.19931
            9315         60.8060         60.9228     689.532E-03        -3.01751
            9316         60.4725         60.5535     573.513E-03        -2.86264
            9317         60.1507         60.1977     469.563E-03        -2.73221
            9318         59.8396         59.8539     375.909E-03        -2.62407
            9319         59.5379         59.5206     291.078E-03        -2.53630
            9320         59.2443         59.1966     213.841E-03        -2.46721
            9321         58.9576         58.8805     143.170E-03        -2.41531
            9322         58.6766         58.5708     78.1995E-03        -2.37929
            9323         58.4001         58.2663     18.2001E-03        -2.35797
            9324         58.1271         57.9657    -37.4462E-03        -2.35033
            9325         57.8566         57.6679    -89.2646E-03        -2.35543
            9326         57.5874         57.3716    -137.702E-03        -2.37246
            9327         57.3187         57.0759    -183.138E-03        -2.40067
            9328         57.0496         56.7796    -225.898E-03        -2.43939
            9329         56.7792         56.4819    -266.259E-03        -2.48802
            9330         56.5068         56.1816    -304.456E-03        -2.54601
            9331         56.2315         55.8780    -340.691E-03        -2.61286
            9332         55.9528         55.5702    -375.132E-03        -2.68810
            9333         55.6698         55.2574    -407.922E-03        -2.77132
            9334         55.3820         54.9388    -439.178E-03        -2.86210
            9335         55.0888         54.6137    -468.998E-03        -2.96009
            9336         54.7897         54.2815    -497.457E-03        -3.06491
            9337         54.4841         53.9414    -524.616E-03        -3.17624
            9338         54.1716         53.5930    -550.516E-03        -3.29375
            9339         53.8517         53.2355    -575.186E-03        -3.41711
            9340         53.5240         52.8686    -598.637E-03        -3.54601
            9341         53.1882         52.4917    -620.868E-03        -3.68014
            9342         52.8440         52.1044    -641.866E-03        -3.81918
            9343         52.4909         51.7062    -661.602E-03        -3.96282
            9344         52.1288         51.2969    -680.036E-03        -4.11071
            9345         51.7574         50.8760    -697.114E-03        -4.26254
            9346         51.3764         50.4432    -712.770E-03        -4.41794
            9347         50.9858         49.9984    -726.924E-03        -4.57654
            9348         50.5853         49.5413    -739.484E-03        -4.73798
            9349         50.1747         49.0718    -750.341E-03        -4.90182
            9350         49.7541         48.5897    -759.374E-03        -5.06765
            9351         49.3233         48.0949    -766.447E-03        -5.23499
            9352         48.8822         47.5876    -771.408E-03        -5.40336
            9353         48.4308         47.0676    -774.089E-03        -5.57223
            9354         47.9690         46.5351    -774.303E-03        -5.74103
            9355         47.4968         45.9902    -771.846E-03        -5.90916
            9356         47.0143         45.4332    -766.496E-03        -6.07596
            9357         46.5213         44.8643    -758.010E-03        -6.24073
            9358         46.0178         44.2838    -746.123E-03        -6.40272
            9359         45.5039         43.6922    -730.549E-03        -6.56112
            9360         44.9795         43.0899    -710.978E-03        -6.71506
            9361         44.4445         42.4774    -687.074E-03        -6.86361
            9362         43.8988         41.8553    -658.477E-03        -7.00575
            9363         43.3424         41.2245    -624.801E-03        -7.14041
            9364         42.7750         40.5855    -585.629E-03        -7.26644
            9365         42.1964         39.9393    -540.519E-03        -7.38261
            9366         41.6065         39.2868    -488.999E-03        -7.48760
            9367         41.0048         38.6290    -430.568E-03        -7.58000
            9368         40.3909         37.9670    -364.699E-03        -7.65833
            9369         39.7644         37.3020    -290.837E-03        -7.72100
            9370         39.1249         36.6351    -208.406E-03        -7.76634
            9371         38.4716         35.9677    -116.815E-03        -7.79260
            9372         37.8039         35.3011    -15.4574E-03        -7.79792
            9373         37.1213         34.6369     96.2654E-03        -7.78040
            9374         36.4230         33.9763     218.938E-03        -7.73805
            9375         35.7084         33.3211     353.104E-03        -7.66882
            9376         34.9769         32.6727     499.238E-03        -7.57066
            9377         34.2283         32.0326     657.699E-03        -7.44150
            9378         33.4626         31.4025     828.674E-03        -7.27929
            9379         32.6799         30.7838         1.01209        -7.08209
            9380         31.8815         30.1782         1.20753        -6.84807
            9381         31.0690         29.5872         1.41405        -6.57561
            9382         30.2454         29.0126         1.62999        -6.26336
            9383         29.4151         28.4560         1.85272        -5.91033
            9384         28.5844         27.9195         2.07827        -5.51592
            9385         27.7619         27.4056         2.30088        -5.07999
            9386         26.9592         26.9176         2.51244        -4.60280
            9387         26.1915         26.4599         2.70175        -4.08481
            9388         25.4782         26.0384         2.85384        -3.52633
            9389         24.8440         25.6614         2.94916        -2.92678
            9390         24.3197         25.3398         2.96304        -2.28369
            9391         23.9436         25.0873         2.86542        -1.59134
            9392         23.7635         24.9207         2.62115    -838.916E-03
            9393         23.8413         24.8604         2.18915    -7.67479E-03
            9394         63.9398         66.4373         19.9723        -14.1703
            9395         65.1288         67.1202         18.2413        -14.4714
            9396         66.2647         67.8130         16.1324        -14.4469
            9397         67.1714         68.3875         13.8799        -14.0440
            9398         67.7551         68.7472         11.7026        -13.3184
            9399         68.0061         68.8551         9.74315        -12.3793
            9400         67.9712         68.7273         8.06268        -11.3396
            9401         67.7184         68.4088         6.66368        -10.2871
            9402         67.3149         67.9526         5.51802        -9.27829
            9403         66.8163         67.4067         4.58663        -8.34427
            9404         66.2644         66.8097         3.83034        -7.49817
            9405         65.6892         66.1901         3.21453        -6.74227
            9406         65.1106         65.5677         2.71050        -6.07289
            9407         64.5418         64.9558         2.29519        -5.48344
            9408         63.9907         64.3626         1.95044        -4.96628
            9409         63.4617         63.7929         1.66198        -4.51371
            9410         62.9571         63.2490         1.41870        -4.11848
            9411         62.4775         62.7317         1.21189        -3.77401
            9412         62.0222         62.2404         1.03470        -3.47447
            9413         61.5903         61.7743     881.744E-03        -3.21474
            9414         61.1803         61.3316     748.733E-03        -2.99038
            9415         60.7904         60.9106     632.247E-03        -2.79753
            9416         60.4187         60.5094     529.536E-03        -2.63285
            9417         60.0635         60.1260     438.378E-03        -2.49346
            9418         59.7228         59.7584     356.964E-03        -2.37687
            9419         59.3949         59.4048     283.811E-03        -2.28090
            9420         59.0781         59.0632     217.702E-03        -2.20369
            9421         58.7706         58.7319     157.627E-03        -2.14359
            9422         58.4710         58.4092     102.745E-03        -2.09916
            9423         58.1778         58.0934     52.3556E-03        -2.06917
            9424         57.8894         57.7831     5.86798E-03        -2.05250
            9425         57.6047         57.4768    -37.2140E-03        -2.04818
            9426         57.3224         57.1731    -77.3106E-03        -2.05536
            9427         57.0413         56.8707    -114.778E-03        -2.07327
            9428         56.7603         56.5684    -149.919E-03        -2.10123
            9429         56.4783         56.2650    -182.990E-03        -2.13864
            9430         56.1945         55.9595    -214.212E-03        -2.18494
            9431         55.9078         55.6508    -243.769E-03        -2.23963
            9432         55.6174         55.3379    -271.819E-03        -2.30227
            9433         55.3226         55.0199    -298.496E-03        -2.37245
            9434         55.0224         54.6959    -323.912E-03        -2.44978
            9435         54.7164         54.3652    -348.158E-03        -2.53390
            9436         54.4036         54.0268    -371.309E-03        -2.62449
            9437         54.0837         53.6801    -393.427E-03        -2.72124
            9438         53.7559         53.3244    -414.557E-03        -2.82384
            9439         53.4197         52.9590    -434.733E-03        -2.93201
            9440         53.0746         52.5834    -453.975E-03        -3.04547
            9441         52.7201         52.1968    -472.293E-03        -3.16394
            9442         52.3559         51.7989    -489.686E-03        -3.28715
            9443         51.9816         51.3891    -506.143E-03        -3.41481
            9444         51.5967         50.9669    -521.641E-03        -3.54666
            9445         51.2010         50.5320    -536.150E-03        -3.68240
            9446         50.7941         50.0839    -549.626E-03        -3.82174
            9447         50.3759         49.6224    -562.017E-03        -3.96437
            9448         49.9462         49.1471    -573.260E-03        -4.10996
            9449         49.5047         48.6579    -583.283E-03        -4.25817
            9450         49.0513         48.1545    -592.000E-03        -4.40864
            9451         48.5858         47.6368    -599.316E-03        -4.56100
            9452         48.1084         47.1047    -605.123E-03        -4.71482
            9453         47.6187         46.5582    -609.300E-03        -4.86966
            9454         47.1170         45.9972    -611.715E-03        -5.02506
            9455         46.6031         45.4219    -612.219E-03        -5.18051
            9456         46.0771         44.8324    -610.652E-03        -5.33546
            9457         45.5391         44.2290    -606.835E-03        -5.48932
            9458         44.9891         43.6118    -600.574E-03        -5.64147
            9459         44.4272         42.9812    -591.660E-03        -5.79120
            9460         43.8536         42.3377    -579.861E-03        -5.93780
            9461         43.2684         41.6818    -564.930E-03        -6.08046
            9462         42.6716         41.0140    -546.597E-03        -6.21832
            9463         42.0634         40.3350    -524.570E-03        -6.35047
            9464         41.4440         39.6456    -498.537E-03        -6.47590
            9465         40.8133         38.9467    -468.159E-03        -6.59357
            9466         40.1714         38.2391    -433.073E-03        -6.70231
            9467         39.5184         37.5240    -392.895E-03        -6.80090
            9468         38.8543         36.8025    -347.210E-03        -6.88803
            9469         38.1789         36.0758    -295.580E-03        -6.96229
            9470         37.4923         35.3452    -237.542E-03        -7.02220
            9471         36.7942         34.6123    -172.613E-03        -7.06616
            9472         36.0843         33.8786    -100.287E-03        -7.09250
            9473         35.3625         33.1457    -20.0443E-03        -7.09944
            9474         34.6284         32.4153     68.6379E-03        -7.08514
            9475         33.8818         31.6893     166.279E-03        -7.04767
            9476         33.1223         30.9694     273.376E-03        -6.98504
            9477         32.3496         30.2576     390.377E-03        -6.89520
            9478         31.5637         29.5559     517.650E-03        -6.77611
            9479         30.7648         28.8663     655.432E-03        -6.62573
            9480         29.9533         28.1906     803.759E-03        -6.44211
            9481         29.1302         27.5308     962.370E-03        -6.22341
            9482         28.2973         26.8888         1.13058        -5.96801
            9483         27.4576         26.2667         1.30707        -5.67462
            9484         26.6150         25.6662         1.48966        -5.34237
            9485         25.7758         25.0894         1.67490        -4.97093
            9486         24.9482         24.5387         1.85762        -4.56066
            9487         24.1438         24.0170         2.03024        -4.11268
            9488         23.3775         23.5283         2.18190        -3.62880
            9489         22.6692         23.0780         2.29748        -3.11128
            9490         22.0439         22.6741         2.35640        -2.56216
            9491         21.5335         22.3278         2.33165        -1.98217
            9492         21.1781         22.0539         2.18916        -1.36908
            9493         21.0279         21.8715         1.88768    -715.530E-03
            9494         21.1497         21.8045         1.37707    -5.70307E-03
            9495         65.7036         68.0222         20.4647        -14.8681
            9496         67.1169         68.8183         18.4025        -15.2369
            9497         68.4087         69.6042         15.8427        -15.1298
            9498         69.3139         70.1764         13.1709        -14.4972
            9499         69.7376         70.4129         10.7066        -13.4736
            9500         69.7235         70.3024         8.60914        -12.2483
            9501         69.3804         69.9085         6.90710        -10.9788
            9502         68.8226         69.3180         5.55964        -9.76442
            9503         68.1419         68.6096         4.50326        -8.65497
            9504         67.4035         67.8431         3.67547        -7.66771
            9505         66.6501         67.0601         3.02363        -6.80219
            9506         65.9084         66.2870         2.50624        -6.04957
            9507         65.1935         65.5400         2.09163        -5.39784
            9508         64.5137         64.8279         1.75596        -4.83451
            9509         63.8724         64.1546         1.48137        -4.34792
            9510         63.2703         63.5214         1.25442        -3.92769
            9511         62.7063         62.9272         1.06498        -3.56482
            9512         62.1782         62.3703     905.331E-03        -3.25164
            9513         61.6836         61.8482     769.554E-03        -2.98164
            9514         61.2194         61.3579     653.072E-03        -2.74932
            9515         60.7829         60.8965     552.315E-03        -2.55005
            9516         60.3711         60.4611     464.470E-03        -2.37989
            9517         59.9813         60.0489     387.309E-03        -2.23554
            9518         59.6108         59.6571     319.047E-03        -2.11416
            9519         59.2571         59.2831     258.246E-03        -2.01335
            9520         58.9180         58.9246     203.739E-03        -1.93104
            9521         58.5913         58.5792     154.572E-03        -1.86546
            9522         58.2748         58.2449     109.961E-03        -1.81510
            9523         57.9669         57.9195     69.2568E-03        -1.77862
            9524         57.6656         57.6014     31.9189E-03        -1.75488
            9525         57.3693         57.2886    -2.50376E-03        -1.74288
            9526         57.0767         56.9797    -34.3898E-03        -1.74174
            9527         56.7861         56.6730    -64.0584E-03        -1.75069
            9528         56.4963         56.3672    -91.7795E-03        -1.76905
            9529         56.2061         56.0609    -117.781E-03        -1.79621
            9530         55.9142         55.7528    -142.258E-03        -1.83164
            9531         55.6196         55.4418    -165.374E-03        -1.87485
            9532         55.3213         55.1268    -187.270E-03        -1.92541
            9533         55.0182         54.8066    -208.062E-03        -1.98293
            9534         54.7096         54.4803    -227.851E-03        -2.04704
            9535         54.3945         54.1469    -246.719E-03        -2.11742
            9536         54.0721         53.8056    -264.737E-03        -2.19376
            9537         53.7418         53.4555    -281.959E-03        -2.27578
            9538         53.4028         53.0958    -298.431E-03        -2.36321
            9539         53.0544         52.7258    -314.187E-03        -2.45580
            9540         52.6961         52.3448    -329.251E-03        -2.55329
            9541         52.3272         51.9520    -343.639E-03        -2.65546
            9542         51.9473         51.5469    -357.358E-03        -2.76205
            9543         51.5558         51.1289    -370.406E-03        -2.87285
            9544         51.1523         50.6974    -382.775E-03        -2.98761
            9545         50.7365         50.2521    -394.449E-03        -3.10610
            9546         50.3079         49.7923    -405.402E-03        -3.22807
            9547         49.8662         49.3177    -415.604E-03        -3.35326
            9548         49.4111         48.8279    -425.014E-03        -3.48142
            9549         48.9424         48.3226    -433.586E-03        -3.61226
            9550         48.4599         47.8016    -441.264E-03        -3.74550
            9551         47.9634         47.2645    -447.984E-03        -3.88081
            9552         47.4529         46.7113    -453.673E-03        -4.01787
            9553         46.9281         46.1418    -458.250E-03        -4.15631
            9554         46.3890         45.5559    -461.625E-03        -4.29577
            9555         45.8358         44.9536    -463.695E-03        -4.43582
            9556         45.2684         44.3351    -464.349E-03        -4.57601
            9557         44.6868         43.7004    -463.464E-03        -4.71589
            9558         44.0913         43.0497    -460.905E-03        -4.85491
            9559         43.4820         42.3833    -456.524E-03        -4.99253
            9560         42.8590         41.7016    -450.159E-03        -5.12813
            9561         42.2227         41.0050    -441.634E-03        -5.26106
            9562         41.5732         40.2940    -430.759E-03        -5.39062
            9563         40.9109         39.5693    -417.324E-03        -5.51604
            9564         40.2360         38.8316    -401.107E-03        -5.63648
            9565         39.5490         38.0816    -381.862E-03        -5.75106
            9566         38.8501         37.3204    -359.327E-03        -5.85881
            9567         38.1397         36.5490    -333.219E-03        -5.95870
            9568         37.4182         35.7686    -303.234E-03        -6.04959
            9569         36.6858         34.9803    -269.046E-03        -6.13030
            9570         35.9430         34.1858    -230.306E-03        -6.19953
            9571         35.1899         33.3864    -186.645E-03        -6.25591
            9572         34.4268         32.5839    -137.670E-03        -6.29795
            9573         33.6541         31.7800    -82.9699E-03        -6.32410
            9574         32.8718         30.9768    -22.1173E-03        -6.33269
            9575         32.0802         30.1762     45.3265E-03        -6.32196
            9576         31.2793         29.3803     119.805E-03        -6.29008
            9577         30.4693         28.5916     201.752E-03        -6.23514
            9578         29.6505         27.8122     291.576E-03        -6.15515
            9579         28.8231         27.0447     389.635E-03        -6.04810
            9580         27.9874         26.2915     496.198E-03        -5.91197
            9581         27.1444         25.5551     611.387E-03        -5.74481
            9582         26.2952         24.8379     735.107E-03        -5.54475
            9583         25.4415         24.1424     866.927E-03        -5.31013
            9584         24.5862         23.4710         1.00592        -5.03961
            9585         23.7333         22.8259         1.15042        -4.73231
            9586         22.8884         22.2093         1.29768        -4.38800
            9587         22.0596         21.6236         1.44338        -4.00733
            9588         21.2577         21.0712         1.58091        -3.59202
            9589         20.4974         20.5555         1.70038        -3.14507
            9590         19.7978         20.0811         1.78727        -2.67067
            9591         19.1841         19.6552         1.82081        -2.17382
            9592         18.6886         19.2886         1.77229        -1.65912
            9593         18.3521         18.9966         1.60386        -1.12889
            9594         18.2271         18.8003         1.26821    -580.522E-03
            9595         18.3849         18.7275     705.449E-03    -3.31239E-03
            9596         67.9458         70.0879         21.1082        -15.6864
            9597         69.6814         71.0487         18.5508        -16.1395
            9598         71.1581         71.9498         15.3251        -15.8586
            9599         71.9574         72.4438         12.1088        -14.8362
            9600         72.0369         72.4042         9.35637        -13.3772
            9601         71.5766         71.9117         7.19257        -11.7957
            9602         70.7881         71.1187         5.55947        -10.2885
            9603         69.8357         70.1645         4.34252        -8.94061
            9604         68.8268         69.1488         3.43434        -7.77315
            9605         67.8244         68.1336         2.75045        -6.77759
            9606         66.8625         67.1540         2.22875        -5.93380
            9607         65.9572         66.2281         1.82512        -5.21968
            9608         65.1148         65.3633         1.50826        -4.61465
            9609         64.3355         64.5610         1.25600        -4.10095
            9610         63.6168         63.8192         1.05244        -3.66371
            9611         62.9544         63.1342     886.080E-03        -3.29073
            9612         62.3434         62.5014     748.499E-03        -2.97201
            9613         61.7789         61.9160     633.445E-03        -2.69940
            9614         61.2558         61.3731     536.222E-03        -2.46625
            9615         60.7697         60.8681     453.263E-03        -2.26707
            9616         60.3162         60.3967     381.825E-03        -2.09736
            9617         59.8912         59.9548     319.776E-03        -1.95338
            9618         59.4912         59.5388     265.444E-03        -1.83201
            9619         59.1128         59.1452     217.503E-03        -1.73065
            9620         58.7529         58.7709     174.893E-03        -1.64709
            9621         58.4088         58.4129     136.761E-03        -1.57948
            9622         58.0778         58.0688     102.413E-03        -1.52624
            9623         57.7577         57.7360     71.2811E-03        -1.48600
            9624         57.4463         57.4123     42.8981E-03        -1.45761
            9625         57.1416         57.0956     16.8772E-03        -1.44007
            9626         56.8418         56.7841    -7.10400E-03        -1.43250
            9627         56.5451         56.4759    -29.3149E-03        -1.43415
            9628         56.2500         56.1694    -49.9820E-03        -1.44435
            9629         55.9551         55.8631    -69.2965E-03        -1.46253
            9630         55.6589         55.5555    -87.4196E-03        -1.48815
            9631         55.3603         55.2453    -104.488E-03        -1.52078
            9632         55.0579         54.9311    -120.617E-03        -1.56000
            9633         54.7507         54.6120    -135.906E-03        -1.60545
            9634         54.4376         54.2866    -150.436E-03        -1.65679
            9635         54.1177         53.9539    -164.278E-03        -1.71373
            9636         53.7900         53.6130    -177.490E-03        -1.77599
            9637         53.4537         53.2629    -190.120E-03        -1.84333
            9638         53.1078         52.9027    -202.207E-03        -1.91549
            9639         52.7517         52.5315    -213.782E-03        -1.99227
            9640         52.3847         52.1486    -224.869E-03        -2.07345
            9641         52.0060         51.7532    -235.485E-03        -2.15883
            9642         51.6150         51.3446    -245.640E-03        -2.24822
            9643         51.2111         50.9221    -255.340E-03        -2.34141
            9644         50.7938         50.4851    -264.582E-03        -2.43822
            9645         50.3626         50.0331    -273.362E-03        -2.53846
            9646         49.9170         49.5653    -281.666E-03        -2.64192
            9647         49.4565         49.0815    -289.477E-03        -2.74840
            9648         48.9809         48.5811    -296.773E-03        -2.85770
            9649         48.4897         48.0636    -303.526E-03        -2.96960
            9650         47.9826         47.5288    -309.702E-03        -3.08386
            9651         47.4595         46.9763    -315.260E-03        -3.20024
            9652         46.9202         46.4059    -320.157E-03        -3.31848
            9653         46.3644         45.8173    -324.340E-03        -3.43831
            9654         45.7920         45.2104    -327.752E-03        -3.55941
            9655         45.2031         44.5850    -330.326E-03        -3.68147
            9656         44.5976         43.9413    -331.991E-03        -3.80415
            9657         43.9756         43.2791    -332.667E-03        -3.92705
            9658         43.3372         42.5986    -332.266E-03        -4.04979
            9659         42.6825         41.9001    -330.689E-03        -4.17191
            9660         42.0118         41.1836    -327.833E-03        -4.29293
            9661         41.3253         40.4497    -323.578E-03        -4.41234
            9662         40.6234         39.6987    -317.800E-03        -4.52957
            9663         39.9064         38.9313    -310.358E-03        -4.64402
            9664         39.1749         38.1480    -301.102E-03        -4.75501
            9665         38.4293         37.3495    -289.868E-03        -4.86182
            9666         37.6701         36.5369    -276.479E-03        -4.96368
            9667         36.8980         35.7111    -260.741E-03        -5.05975
            9668         36.1136         34.8732    -242.445E-03        -5.14910
            9669         35.3175         34.0245    -221.366E-03        -5.23075
            9670         34.5105         33.1664    -197.262E-03        -5.30364
            9671         33.6933         32.3005    -169.872E-03        -5.36662
            9672         32.8667         31.4286    -138.916E-03        -5.41845
            9673         32.0313         30.5525    -104.096E-03        -5.45780
            9674         31.1880         29.6742    -65.0968E-03        -5.48326
            9675         30.3375         28.7961    -21.5849E-03        -5.49331
            9676         29.4806         27.9204     26.7855E-03        -5.48633
            9677         28.6179         27.0499     80.3705E-03        -5.46062
            9678         27.7502         26.1871     139.528E-03        -5.41439
            9679         26.8784         25.3349     204.608E-03        -5.34577
            9680         26.0031         24.4963     275.933E-03        -5.25283
            9681         25.1255         23.6744     353.775E-03        -5.13360
            9682         24.2467         22.8724     438.315E-03        -4.98615
            9683         23.3681         22.0934     529.588E-03        -4.80859
            9684         22.4918         21.3406     627.397E-03        -4.59920
            9685         21.6207         20.6169     731.184E-03        -4.35653
            9686         20.7587         19.9254     839.838E-03        -4.07957
            9687         19.9110         19.2687     951.404E-03        -3.76799
            9688         19.0852         18.6493         1.06263        -3.42240
            9689         18.2914         18.0695         1.16829        -3.04478
            9690         17.5430         17.5320         1.26012        -2.63885
            9691         16.8583         17.0402         1.32527        -2.21047
            9692         16.2609         16.5996         1.34403        -1.76769
            9693         15.7822         16.2196         1.28713        -1.31972
            9694         15.4634         15.9155         1.11351    -874.663E-03
            9695         15.3574         15.7093     770.095E-03    -435.966E-03
            9696         15.5386         15.6315     187.551E-03    -127.058E-06
            9697         70.9609         72.9331         22.0270        -16.7086
            9698         73.1703         74.1217         18.6264        -17.2582
            9699         74.7795         75.1047         14.3632        -16.5699
            9700         75.1844         75.3018         10.4832        -14.8531
            9701         74.5949         74.6991         7.54953        -12.7983
            9702         73.4310         73.5731         5.48558        -10.8415
            9703         72.0409         72.2185         4.06104        -9.14999
            9704         70.6180         70.8155         3.07151        -7.74929
            9705         69.2538         69.4575         2.37059        -6.60249
            9706         67.9873         68.1879         1.86378        -5.66581
            9707         66.8303         67.0217         1.48892        -4.89760
            9708         65.7813         65.9600         1.20580        -4.26387
            9709         64.8329         64.9971     987.694E-03        -3.73765
            9710         63.9758         64.1246     816.628E-03        -3.29802
            9711         63.1999         63.3334     680.227E-03        -2.92872
            9712         62.4959         62.6143     569.823E-03        -2.61709
            9713         61.8550         61.9587     479.228E-03        -2.35326
            9714         61.2692         61.3590     403.949E-03        -2.12939
            9715         60.7315         60.8082     340.668E-03        -1.93927
            9716         60.2357         60.2999     286.902E-03        -1.77791
            9717         59.7762         59.8286     240.766E-03        -1.64127
            9718         59.3481         59.3893     200.809E-03        -1.52606
            9719         58.9469         58.9776     165.902E-03        -1.42956
            9720         58.5687         58.5895     135.160E-03        -1.34954
            9721         58.2100         58.2214     107.877E-03        -1.28411
            9722         57.8677         57.8700     83.4884E-03        -1.23170
            9723         57.5388         57.5325     61.5387E-03        -1.19100
            9724         57.2207         57.2062     41.6557E-03        -1.16087
            9725         56.9111         56.8886     23.5347E-03        -1.14035
            9726         56.6079         56.5776     6.92401E-03        -1.12861
            9727         56.3090         56.2711    -8.38538E-03        -1.12495
            9728         56.0126         55.9672    -22.5678E-03        -1.12873
            9729         55.7170         55.6641    -35.7694E-03        -1.13943
            9730         55.4206         55.3603    -48.1133E-03        -1.15657
            9731         55.1220         55.0543    -59.7031E-03        -1.17974
            9732         54.8199         54.7445    -70.6267E-03        -1.20858
            9733         54.5128         54.4298    -80.9582E-03        -1.24274
            9734         54.1998         54.1088    -90.7603E-03        -1.28195
            9735         53.8795         53.7804    -100.086E-03        -1.32594
            9736         53.5510         53.4435    -108.980E-03        -1.37447
            9737         53.2132         53.0970    -117.479E-03        -1.42733
            9738         52.8653         52.7399    -125.615E-03        -1.48432
            9739         52.5063         52.3713    -133.411E-03        -1.54525
            9740         52.1355         51.9902    -140.888E-03        -1.60994
            9741         51.7519         51.5960    -148.060E-03        -1.67824
            9742         51.3549         51.1877    -154.939E-03        -1.74998
            9743         50.9437         50.7646    -161.530E-03        -1.82501
            9744         50.5177         50.3260    -167.838E-03        -1.90318
            9745         50.0764         49.8711    -173.860E-03        -1.98434
            9746         49.6190         49.3995    -179.593E-03        -2.06833
            9747         49.1451         48.9104    -185.028E-03        -2.15501
            9748         48.6543         48.4034    -190.154E-03        -2.24420
            9749         48.1460         47.8779    -194.956E-03        -2.33576
            9750         47.6198         47.3335    -199.417E-03        -2.42950
            9751         47.0755         46.7698    -203.513E-03        -2.52524
            9752         46.5126         46.1863    -207.219E-03        -2.62279
            9753         45.9311         45.5829    -210.505E-03        -2.72194
            9754         45.3306         44.9591    -213.338E-03        -2.82246
            9755         44.7110         44.3150    -215.679E-03        -2.92412
            9756         44.0722         43.6502    -217.486E-03        -3.02665
            9757         43.4143         42.9648    -218.711E-03        -3.12978
            9758         42.7372         42.2587    -219.302E-03        -3.23320
            9759         42.0411         41.5320    -219.201E-03        -3.33658
            9760         41.3261         40.7849    -218.343E-03        -3.43956
            9761         40.5925         40.0176    -216.659E-03        -3.54174
            9762         39.8407         39.2304    -214.071E-03        -3.64271
            9763         39.0709         38.4239    -210.495E-03        -3.74199
            9764         38.2837         37.5985    -205.839E-03        -3.83908
            9765         37.4797         36.7549    -200.002E-03        -3.93343
            9766         36.6595         35.8938    -192.875E-03        -4.02444
            9767         35.8238         35.0163    -184.338E-03        -4.11147
            9768         34.9735         34.1234    -174.261E-03        -4.19380
            9769         34.1095         33.2162    -162.504E-03        -4.27067
            9770         33.2327         32.2962    -148.913E-03        -4.34124
            9771         32.3443         31.3649    -133.321E-03        -4.40461
            9772         31.4454         30.4239    -115.551E-03        -4.45980
            9773         30.5372         29.4753    -95.4084E-03        -4.50576
            9774         29.6210         28.5212    -72.6852E-03        -4.54133
            9775         28.6982         27.5637    -47.1591E-03        -4.56529
            9776         27.7701         26.6056    -18.5927E-03        -4.57632
            9777         26.8382         25.6494     13.2641E-03        -4.57299
            9778         25.9040         24.6983     48.6735E-03        -4.55379
            9779         24.9690         23.7554     87.9055E-03        -4.51712
            9780         24.0348         22.8241     131.232E-03        -4.46127
            9781         23.1029         21.9080     178.917E-03        -4.38447
            9782         22.1752         21.0110     231.203E-03        -4.28487
            9783         21.2534         20.1370     288.285E-03        -4.16063
            9784         20.3398         19.2900     350.277E-03        -4.00990
            9785         19.4368         18.4741     417.156E-03        -3.83091
            9786         18.5475         17.6935     488.674E-03        -3.62210
            9787         17.6761         16.9520     564.224E-03        -3.38226
            9788         16.8276         16.2532     642.628E-03        -3.11077
            9789         16.0090         15.6005     721.782E-03        -2.80792
            9790         15.2296         14.9963     798.112E-03        -2.47537
            9791         14.5015         14.4430     865.593E-03        -2.11691
            9792         13.8405         13.9426     914.260E-03        -1.73915
            9793         13.2674         13.4979     927.344E-03        -1.35279
            9794         12.8104         13.1152     877.318E-03    -972.067E-03
            9795         12.5089         12.8082     720.262E-03    -613.202E-03
            9796         12.4157         12.5998     397.338E-03    -285.770E-03
            9797         12.6069         12.5235    -165.135E-03     2.44407E-03
            9798         74.9362         76.7737         23.2126        -17.9305
            9799         78.1880         78.6278         18.4427        -18.6272
            9800         79.7741         79.5827         12.5282        -17.0342
            9801         79.0522         78.8405         8.03109        -14.1668
            9802         77.1601         77.0912         5.24651        -11.3658
            9803         74.9900         75.0137         3.58016        -9.16848
            9804         72.8873         72.9632         2.52894        -7.46203
            9805         70.9755         71.0783         1.85407        -6.15741
            9806         69.2801         69.3931         1.39886        -5.14620
            9807         67.7891         67.9031         1.08203        -4.35238
            9808         66.4796         66.5895     853.970E-03        -3.72010
            9809         65.3273         65.4302     685.237E-03        -3.20985
            9810         64.3095         64.4041     557.268E-03        -2.79331
            9811         63.4066         63.4922     458.101E-03        -2.44993
            9812         62.6016         62.6782     379.770E-03        -2.16458
            9813         61.8802         61.9481     316.836E-03        -1.92593
            9814         61.2304         61.2897     265.497E-03        -1.72541
            9815         60.6417         60.6929     223.036E-03        -1.55639
            9816         60.1054         60.1490     187.476E-03        -1.41371
            9817         59.6140         59.6504     157.353E-03        -1.29331
            9818         59.1610         59.1906     131.565E-03        -1.19192
            9819         58.7407         58.7639     109.272E-03        -1.10694
            9820         58.3481         58.3654     89.8242E-03        -1.03622
            9821         57.9790         57.9906     72.7144E-03    -978.002E-03
            9822         57.6295         57.6357     57.5412E-03    -930.842E-03
            9823         57.2961         57.2972     43.9843E-03    -893.526E-03
            9824         56.9758         56.9720     31.7857E-03    -865.035E-03
            9825         56.6658         56.6572     20.7359E-03    -844.509E-03
            9826         56.3636         56.3505     10.6636E-03    -831.218E-03
            9827         56.0669         56.0494     1.42780E-03    -824.535E-03
            9828         55.7736         55.7518    -7.08860E-03    -823.924E-03
            9829         55.4819         55.4558    -14.9829E-03    -828.919E-03
            9830         55.1899         55.1595    -22.3368E-03    -839.116E-03
            9831         54.8960         54.8614    -29.2186E-03    -854.165E-03
            9832         54.5986         54.5598    -35.6863E-03    -873.756E-03
            9833         54.2964         54.2533    -41.7884E-03    -897.617E-03
            9834         53.9881         53.9405    -47.5663E-03    -925.506E-03
            9835         53.6722         53.6201    -53.0547E-03    -957.209E-03
            9836         53.3478         53.2909    -58.2831E-03    -992.531E-03
            9837         53.0136         52.9518    -63.2760E-03        -1.03130
            9838         52.6686         52.6017    -68.0541E-03        -1.07336
            9839         52.3118         52.2395    -72.6342E-03        -1.11855
            9840         51.9422         51.8643    -77.0302E-03        -1.16675
            9841         51.5590         51.4752    -81.2528E-03        -1.21783
            9842         51.1613         51.0712    -85.3104E-03        -1.27167
            9843         50.7483         50.6515    -89.2087E-03        -1.32816
            9844         50.3192         50.2153    -92.9513E-03        -1.38717
            9845         49.8734         49.7619    -96.5396E-03        -1.44861
            9846         49.4100         49.2905    -99.9729E-03        -1.51236
            9847         48.9286         48.8005    -103.249E-03        -1.57831
            9848         48.4284         48.2911    -106.362E-03        -1.64635
            9849         47.9090         47.7619    -109.307E-03        -1.71636
            9850         47.3698         47.2123    -112.075E-03        -1.78823
            9851         46.8104         46.6417    -114.654E-03        -1.86182
            9852         46.2302         46.0497    -117.034E-03        -1.93700
            9853         45.6291         45.4359    -119.198E-03        -2.01362
            9854         45.0067         44.7999    -121.130E-03        -2.09153
            9855         44.3626         44.1415    -122.811E-03        -2.17057
            9856         43.6967         43.4603    -124.219E-03        -2.25055
            9857         43.0089         42.7561    -125.329E-03        -2.33128
            9858         42.2991         42.0290    -126.114E-03        -2.41255
            9859         41.5672         41.2787    -126.544E-03        -2.49413
            9860         40.8135         40.5055    -126.587E-03        -2.57576
            9861         40.0379         39.7092    -126.203E-03        -2.65717
            9862         39.2408         38.8903    -125.355E-03        -2.73807
            9863         38.4224         38.0490    -123.996E-03        -2.81812
            9864         37.5833         37.1857    -122.078E-03        -2.89698
            9865         36.7239         36.3009    -119.548E-03        -2.97424
            9866         35.8449         35.3953    -116.347E-03        -3.04949
            9867         34.9471         34.4698    -112.410E-03        -3.12226
            9868         34.0312         33.5251    -107.669E-03        -3.19204
            9869         33.0983         32.5625    -102.047E-03        -3.25829
            9870         32.1496         31.5832    -95.4596E-03        -3.32040
            9871         31.1863         30.5886    -87.8171E-03        -3.37771
            9872         30.2097         29.5804    -79.0204E-03        -3.42950
            9873         29.2215         28.5604    -68.9620E-03        -3.47501
            9874         28.2234         27.5307    -57.5251E-03        -3.51338
            9875         27.2171         26.4936    -44.5833E-03        -3.54369
            9876         26.2046         25.4517    -29.9999E-03        -3.56495
            9877         25.1880         24.4078    -13.6276E-03        -3.57607
            9878         24.1697         23.3650     4.69112E-03        -3.57590
            9879         23.1518         22.3266     25.1241E-03        -3.56318
            9880         22.1370         21.2965     47.8478E-03        -3.53656
            9881         21.1277         20.2785     73.0455E-03        -3.49459
            9882         20.1267         19.2771     100.903E-03        -3.43576
            9883         19.1369         18.2968     131.600E-03        -3.35845
            9884         18.1610         17.3424     165.303E-03        -3.26099
            9885         17.2024         16.4192     202.144E-03        -3.14168
            9886         16.2645         15.5325     242.189E-03        -2.99883
            9887         15.3510         14.6875     285.397E-03        -2.83084
            9888         14.4666         13.8898     331.540E-03        -2.63634
            9889         13.6167         13.1445     380.075E-03        -2.41433
            9890         12.8080         12.4563     429.934E-03        -2.16455
            9891         12.0492         11.8292     479.176E-03        -1.88790
            9892         11.3511         11.2659     524.264E-03        -1.58723
            9893         10.7267         10.7677     559.132E-03        -1.26843
            9894         10.1923         10.3343     571.905E-03    -943.034E-03
            9895         9.76673         9.96560     542.228E-03    -628.591E-03
            9896         9.48432         9.67001     425.688E-03    -355.157E-03
            9897         9.39919         9.47123     152.256E-03    -140.753E-03
            9898         9.57339         9.39107    -354.768E-03     7.80435E-03
            9899         82.5185         84.3323         26.1899        -20.1607
            9900         86.3443         85.5949         17.4480        -20.9501
            9901         86.1263         85.5850         8.52153        -15.8063
            9902         82.9148         82.6186         4.69559        -11.7598
            9903         79.0489         78.9333         2.70509        -8.64951
            9904         75.7460         75.7244         1.73491        -6.62431
            9905         72.9796         72.9991         1.17573        -5.21529
            9906         70.6814         70.7204     839.439E-03        -4.20858
            9907         68.7570         68.8040     622.472E-03        -3.46336
            9908         67.1314         67.1803     475.649E-03        -2.89615
            9909         65.7447         65.7924     372.180E-03        -2.45428
            9910         64.5509         64.5958     296.732E-03        -2.10342
            9911         63.5144         63.5558     240.135E-03        -1.82048
            9912         62.6074         62.6449     196.628E-03        -1.58945
            9913         61.8078         61.8414     162.470E-03        -1.39892
            9914         61.0979         61.1276     135.152E-03        -1.24060
            9915         60.4635         60.4894     112.945E-03        -1.10831
            9916         59.8926         59.9149     94.6267E-03    -997.358E-03
            9917         59.3754         59.3944     79.3155E-03    -904.152E-03
            9918         58.9037         58.9195     66.3638E-03    -825.877E-03
            9919         58.4705         58.4833     55.2871E-03    -760.304E-03
            9920         58.0697         58.0797     45.7179E-03    -705.651E-03
            9921         57.6962         57.7035     37.3732E-03    -660.473E-03
            9922         57.3453         57.3502     30.0323E-03    -623.593E-03
            9923         57.0132         57.0157     23.5216E-03    -594.038E-03
            9924         56.6962         56.6965     17.7027E-03    -571.000E-03
            9925         56.3913         56.3894     12.4645E-03    -553.803E-03
            9926         56.0955         56.0915     7.71659E-03    -541.879E-03
            9927         55.8063         55.8003     3.38555E-03    -534.743E-03
            9928         55.5214         55.5135    -589.270E-06    -531.984E-03
            9929         55.2387         55.2288    -4.25801E-03    -533.250E-03
            9930         54.9561         54.9444    -7.66240E-03    -538.234E-03
            9931         54.6720         54.6584    -10.8374E-03    -546.675E-03
            9932         54.3845         54.3690    -13.8122E-03    -558.341E-03
            9933         54.0922         54.0748    -16.6117E-03    -573.032E-03
            9934         53.7936         53.7743    -19.2565E-03    -590.570E-03
            9935         53.4873         53.4660    -21.7645E-03    -610.801E-03
            9936         53.1721         53.1487    -24.1503E-03    -633.584E-03
            9937         52.8466         52.8210    -26.4265E-03    -658.794E-03
            9938         52.5098         52.4820    -28.6038E-03    -686.320E-03
            9939         52.1604         52.1303    -30.6907E-03    -716.059E-03
            9940         51.7976         51.7651    -32.6947E-03    -747.918E-03
            9941         51.4203         51.3852    -34.6214E-03    -781.810E-03
            9942         51.0275         50.9896    -36.4754E-03    -817.654E-03
            9943         50.6184         50.5776    -38.2604E-03    -855.373E-03
            9944         50.1921         50.1481    -39.9786E-03    -894.894E-03
            9945         49.7477         49.7004    -41.6316E-03    -936.146E-03
            9946         49.2844         49.2336    -43.2199E-03    -979.058E-03
            9947         48.8016         48.7470    -44.7431E-03        -1.02356
            9948         48.2985         48.2399    -46.2000E-03        -1.06958
            9949         47.7745         47.7115    -47.5885E-03        -1.11705
            9950         47.2288         47.1612    -48.9058E-03        -1.16589
            9951         46.6610         46.5884    -50.1479E-03        -1.21602
            9952         46.0706         45.9926    -51.3102E-03        -1.26737
            9953         45.4569         45.3731    -52.3872E-03        -1.31983
            9954         44.8196         44.7297    -53.3722E-03        -1.37333
            9955         44.1582         44.0618    -54.2578E-03        -1.42775
            9956         43.4725         43.3690    -55.0354E-03        -1.48299
            9957         42.7621         42.6511    -55.6953E-03        -1.53893
            9958         42.0269         41.9079    -56.2267E-03        -1.59544
            9959         41.2667         41.1390    -56.6175E-03        -1.65238
            9960         40.4814         40.3446    -56.8542E-03        -1.70959
            9961         39.6711         39.5244    -56.9220E-03        -1.76691
            9962         38.8358         38.6786    -56.8044E-03        -1.82415
            9963         37.9757         37.8074    -56.4833E-03        -1.88111
            9964         37.0912         36.9110    -55.9388E-03        -1.93757
            9965         36.1825         35.9898    -55.1488E-03        -1.99329
            9966         35.2503         35.0443    -54.0893E-03        -2.04799
            9967         34.2952         34.0752    -52.7338E-03        -2.10140
            9968         33.3180         33.0831    -51.0533E-03        -2.15319
            9969         32.3196         32.0691    -49.0161E-03        -2.20301
            9970         31.3012         31.0342    -46.5873E-03        -2.25048
            9971         30.2638         29.9797    -43.7288E-03        -2.29519
            9972         29.2092         28.9072    -40.3988E-03        -2.33667
            9973         28.1388         27.8183    -36.5516E-03        -2.37442
            9974         27.0545         26.7150    -32.1373E-03        -2.40790
            9975         25.9584         25.5995    -27.1011E-03        -2.43651
            9976         24.8528         24.4743    -21.3834E-03        -2.45959
            9977         23.7402         23.3421    -14.9193E-03        -2.47643
            9978         22.6235         22.2060    -7.63775E-03        -2.48626
            9979         21.5055         21.0695     537.888E-06        -2.48823
            9980         20.3897         19.9364     9.69065E-03        -2.48141
            9981         19.2795         18.8109     19.9097E-03        -2.46482
            9982         18.1788         17.6975     31.2898E-03        -2.43736
            9983         17.0916         16.6013     43.9305E-03        -2.39789
            9984         16.0222         15.5277     57.9340E-03        -2.34514
            9985         14.9751         14.4826     73.4016E-03        -2.27781
            9986         13.9551         13.4725     90.4273E-03        -2.19450
            9987         12.9672         12.5039     109.087E-03        -2.09379
            9988         12.0166         11.5840     129.423E-03        -1.97423
            9989         11.1093         10.7202     151.409E-03        -1.83446
            9990         10.2516         9.91970     174.905E-03        -1.67329
            9991         9.45088         9.18986     199.565E-03        -1.48994
            9992         8.71578         8.53722     224.682E-03        -1.28430
            9993         8.05658         7.96705     248.891E-03        -1.05760
            9994         7.48494         7.48233     269.724E-03    -813.306E-03
            9995         7.01252         7.08185     281.884E-03    -559.629E-03
            9996         6.64692         6.75895     276.584E-03    -311.473E-03
            9997         6.38839         6.49469     224.575E-03    -113.480E-03
            9998         6.29739         6.31389     33.2592E-03    -2.15014E-03
            9999         6.49643         6.29239    -390.304E-03    -16.2795E-03
           10000         87.5586         89.1068         24.2253        -20.6487
           10001         104.621         102.397         12.7439        -22.7949
           10002         93.7026         92.6954         1.91509        -10.8442
           10003         84.4861         84.3860         1.37679        -6.60716
           10004         79.1288         79.0389     610.869E-03        -4.54830
           10005         75.0400         75.0129     397.248E-03        -3.35175
           10006         71.9664         71.9550     256.844E-03        -2.58598
           10007         69.5331         69.5322     181.649E-03        -2.05991
           10008         67.5672         67.5710     133.155E-03        -1.68072
           10009         65.9442         65.9503     101.179E-03        -1.39689
           10010         64.5830         64.5901     78.8289E-03        -1.17827
           10011         63.4261         63.4334     62.6673E-03        -1.00606
           10012         62.4318         62.4389     50.6002E-03    -868.010E-03
           10013         61.5688         61.5756     41.3553E-03    -755.804E-03
           10014         60.8133         60.8195     34.1125E-03    -663.623E-03
           10015         60.1466         60.1522     28.3278E-03    -587.282E-03
           10016         59.5537         59.5586     23.6286E-03    -523.695E-03
           10017         59.0224         59.0267     19.7533E-03    -470.544E-03
           10018         58.5429         58.5465     16.5139E-03    -426.051E-03
           10019         58.1068         58.1098     13.7727E-03    -388.838E-03
           10020         57.7071         57.7095     11.4271E-03    -357.813E-03
           10021         57.3379         57.3397     9.39906E-03    -332.108E-03
           10022         56.9939         56.9952     7.62892E-03    -311.022E-03
           10023         56.6707         56.6715     6.07011E-03    -293.980E-03
           10024         56.3643         56.3646     4.68596E-03    -280.513E-03
           10025         56.0713         56.0711     3.44731E-03    -270.229E-03
           10026         55.7885         55.7879     2.33072E-03    -262.802E-03
           10027         55.5132         55.5121     1.31720E-03    -257.956E-03
           10028         55.2428         55.2412     391.237E-06    -255.459E-03
           10029         54.9750         54.9730    -459.933E-06    -255.113E-03
           10030         54.7076         54.7052    -1.24688E-03    -256.747E-03
           10031         54.4389         54.4360    -1.97838E-03    -260.216E-03
           10032         54.1669         54.1636    -2.66182E-03    -265.391E-03
           10033         53.8900         53.8863    -3.30336E-03    -272.165E-03
           10034         53.6066         53.6025    -3.90821E-03    -280.439E-03
           10035         53.3153         53.3107    -4.48076E-03    -290.130E-03
           10036         53.0146         53.0095    -5.02474E-03    -301.164E-03
           10037         52.7033         52.6977    -5.54327E-03    -313.473E-03
           10038         52.3801         52.3740    -6.03900E-03    -326.998E-03
           10039         52.0439         52.0372    -6.51415E-03    -341.687E-03
           10040         51.6934         51.6862    -6.97056E-03    -357.491E-03
           10041         51.3277         51.3199    -7.40975E-03    -374.366E-03
           10042         50.9456         50.9372    -7.83295E-03    -392.270E-03
           10043         50.5463         50.5371    -8.24112E-03    -411.166E-03
           10044         50.1287         50.1188    -8.63498E-03    -431.017E-03
           10045         49.6919         49.6812    -9.01503E-03    -451.789E-03
           10046         49.2351         49.2236    -9.38157E-03    -473.449E-03
           10047         48.7574         48.7450    -9.73469E-03    -495.962E-03
           10048         48.2580         48.2446    -10.0743E-03    -519.297E-03
           10049         47.7362         47.7217    -10.4000E-03    -543.418E-03
           10050         47.1911         47.1755    -10.7115E-03    -568.293E-03
           10051         46.6222         46.6053    -11.0081E-03    -593.884E-03
           10052         46.0287         46.0105    -11.2888E-03    -620.155E-03
           10053         45.4101         45.3905    -11.5527E-03    -647.066E-03
           10054         44.7657         44.7446    -11.7986E-03    -674.574E-03
           10055         44.0951         44.0723    -12.0249E-03    -702.633E-03
           10056         43.3978         43.3732    -12.2299E-03    -731.194E-03
           10057         42.6733         42.6467    -12.4119E-03    -760.204E-03
           10058         41.9212         41.8926    -12.5686E-03    -789.603E-03
           10059         41.1414         41.1106    -12.6976E-03    -819.328E-03
           10060         40.3335         40.3003    -12.7963E-03    -849.310E-03
           10061         39.4974         39.4616    -12.8616E-03    -879.470E-03
           10062         38.6330         38.5944    -12.8902E-03    -909.726E-03
           10063         37.7403         37.6988    -12.8783E-03    -939.985E-03
           10064         36.8195         36.7747    -12.8221E-03    -970.144E-03
           10065         35.8707         35.8225    -12.7169E-03        -1.00009
           10066         34.8943         34.8424    -12.5577E-03        -1.02971
           10067         33.8907         33.8349    -12.3393E-03        -1.05886
           10068         32.8606         32.8005    -12.0555E-03        -1.08739
           10069         31.8046         31.7401    -11.6998E-03        -1.11514
           10070         30.7238         30.6544    -11.2648E-03        -1.14193
           10071         29.6191         29.5446    -10.7427E-03        -1.16756
           10072         28.4920         28.4120    -10.1247E-03        -1.19182
           10073         27.3438         27.2581    -9.40106E-03        -1.21447
           10074         26.1765         26.0846    -8.56120E-03        -1.23524
           10075         24.9919         24.8936    -7.59343E-03        -1.25385
           10076         23.7924         23.6872    -6.48488E-03        -1.26999
           10077         22.5805         22.4682    -5.22140E-03        -1.28330
           10078         21.3592         21.2395    -3.78741E-03        -1.29340
           10079         20.1317         20.0043    -2.16574E-03        -1.29989
           10080         18.9018         18.7665    -337.565E-06        -1.30229
           10081         17.6734         17.5302     1.71779E-03        -1.30010
           10082         16.4510         16.2999     4.02298E-03        -1.29278
           10083         15.2397         15.0810     6.60269E-03        -1.27972
           10084         14.0449         13.8790     9.48367E-03        -1.26026
           10085         12.8725         12.7002     12.6946E-03        -1.23368
           10086         11.7290         11.5517     16.2658E-03        -1.19921
           10087         10.6213         10.4410     20.2284E-03        -1.15599
           10088         9.55705         9.37638     24.6130E-03        -1.10314
           10089         8.54409         8.36685     29.4468E-03        -1.03970
           10090         7.59090         7.42203     34.7490E-03    -964.692E-03
           10091         6.70635         6.55216     40.5228E-03    -877.157E-03
           10092         5.89989         5.76789     46.7386E-03    -776.211E-03
           10093         5.18164         5.07996     53.3140E-03    -661.176E-03
           10094         4.56293         4.49869     60.0357E-03    -531.853E-03
           10095         4.05595         4.03257     66.6634E-03    -388.776E-03
           10096         3.67500         3.68785     71.8876E-03    -234.733E-03
           10097         3.42141         3.45771     78.7590E-03    -73.2042E-03
           10098         3.30557         3.33628     67.7874E-03     72.1596E-03
           10099         3.09154         3.13558     145.482E-03     165.408E-03
           10100         3.12855         2.82710    -476.764E-03    -129.644E-03
           10101         174.289         174.747         45.7919        -43.7617
           10102         112.394         106.680        -9.69921         4.80812
           10103         88.9028         89.1646     575.274E-03    -334.301E-03
           10104         81.8978         81.5450    -699.603E-03     203.631E-03
           10105         76.1781         76.1660    -24.2523E-03    -21.9076E-03
           10106         72.4965         72.4450    -102.894E-03     33.8714E-03
           10107         69.6541         69.6311    -46.0209E-03     17.1870E-03
           10108         67.4520         67.4330    -38.0132E-03     17.9457E-03
           10109         65.6748         65.6614    -26.7623E-03     14.4843E-03
           10110         64.2141         64.2037    -20.6905E-03     12.6199E-03
           10111         62.9918         62.9838    -16.0896E-03     10.8615E-03
           10112         61.9555         61.9491    -12.8274E-03     9.49920E-03
           10113         61.0668         61.0616    -10.3675E-03     8.36932E-03
           10114         60.2972         60.2930    -8.48385E-03     7.43994E-03
           10115          59.625         59.6215    -7.00556E-03     6.66196E-03
           10116         59.0330         59.0301    -5.82439E-03     6.00428E-03
           10117         58.5075         58.5051    -4.86455E-03     5.44170E-03
           10118         58.0376         58.0356    -4.07301E-03     4.95523E-03
           10119         57.6140         57.6123    -3.41151E-03     4.53016E-03
           10120         57.2291         57.2277    -2.85195E-03     4.15501E-03
           10121         56.8764         56.8753    -2.37339E-03     3.82075E-03
           10122         56.5505         56.5495    -1.95990E-03     3.52019E-03
           10123         56.2464         56.2456    -1.59926E-03     3.24755E-03
           10124         55.9599         55.9593    -1.28193E-03     2.99815E-03
           10125         55.6875         55.6870    -1.00042E-03     2.76816E-03
           10126         55.4258         55.4255    -748.744E-06     2.55441E-03
           10127         55.1719         55.1717    -522.106E-06     2.35428E-03
           10128         54.9232         54.9230    -316.616E-06     2.16556E-03
           10129         54.6771         54.6771    -129.096E-06     1.98636E-03
           10130         54.4316         54.4316     43.0700E-06     1.81508E-03
           10131         54.1846         54.1847     202.046E-06     1.65037E-03
           10132         53.9342         53.9343     349.631E-06     1.49102E-03
           10133         53.6786         53.6789     487.334E-06     1.33597E-03
           10134         53.4163         53.4166     616.416E-06     1.18431E-03
           10135         53.1458         53.1462     737.949E-06     1.03524E-03
           10136         52.8655         52.8659     852.825E-06     887.996E-06
           10137         52.5741         52.5745     961.812E-06     741.925E-06
           10138         52.2702         52.2708     1.06554E-03     596.413E-06
           10139         51.9528         51.9534     1.16457E-03     450.915E-06
           10140         51.6205         51.6211     1.25934E-03     304.928E-06
           10141         51.2722         51.2728     1.35022E-03     157.943E-06
           10142         50.9068         50.9075     1.43754E-03     9.54792E-06
           10143         50.5233         50.5240     1.52154E-03    -140.702E-06
           10144         50.1206         50.1214     1.60243E-03    -293.182E-06
           10145         49.6978         49.6986     1.68035E-03    -448.288E-06
           10146         49.2538         49.2547     1.75540E-03    -606.405E-06
           10147         48.7879         48.7888     1.82765E-03    -767.853E-06
           10148         48.2990         48.3000     1.89713E-03    -932.962E-06
           10149         47.7864         47.7874     1.96379E-03    -1.10209E-03
           10150         47.2492         47.2502     2.02762E-03    -1.27552E-03
           10151         46.6866         46.6877     2.08850E-03    -1.45357E-03
           10152         46.0979         46.0990     2.14631E-03    -1.63654E-03
           10153         45.4823         45.4834     2.20088E-03    -1.82469E-03
           10154         44.8392         44.8403     2.25201E-03    -2.01828E-03
           10155         44.1678         44.1690     2.29944E-03    -2.21766E-03
           10156         43.4677         43.4689     2.34291E-03    -2.42295E-03
           10157         42.7382         42.7394     2.38207E-03    -2.63442E-03
           10158         41.9788         41.9800     2.41656E-03    -2.85231E-03
           10159         41.1891         41.1904     2.44594E-03    -3.07679E-03
           10160         40.3687         40.3700     2.46975E-03    -3.30802E-03
           10161         39.5173         39.5186     2.48746E-03    -3.54614E-03
           10162         38.6346         38.6358     2.49846E-03    -3.79124E-03
           10163         37.7204         37.7217     2.50213E-03    -4.04340E-03
           10164         36.7747         36.7759     2.49773E-03    -4.30261E-03
           10165         35.7974         35.7987     2.48446E-03    -4.56884E-03
           10166         34.7887         34.7900     2.46146E-03    -4.84195E-03
           10167         33.7489         33.7501     2.42774E-03    -5.12182E-03
           10168         32.6782         32.6794     2.38229E-03    -5.40813E-03
           10169         31.5772         31.5784     2.32389E-03    -5.70051E-03
           10170         30.4466         30.4477     2.25129E-03    -5.99841E-03
           10171         29.2872         29.2883     2.16309E-03    -6.30127E-03
           10172         28.1000         28.1010     2.05775E-03    -6.60812E-03
           10173         26.8863         26.8873     1.93360E-03    -6.91797E-03
           10174         25.6476         25.6485     1.78874E-03    -7.22951E-03
           10175         24.3856         24.3864     1.62122E-03    -7.54118E-03
           10176         23.1023         23.1030     1.42876E-03    -7.85095E-03
           10177         21.8000         21.8006     1.20897E-03    -8.15637E-03
           10178         20.4814         20.4819     959.171E-06    -8.45459E-03
           10179         19.1497         19.1500     676.449E-06    -8.74206E-03
           10180         17.8082         17.8083     357.644E-06    -9.01441E-03
           10181         16.4608         16.4608    -692.899E-09    -9.26636E-03
           10182         15.1121         15.1119    -402.347E-06    -9.49142E-03
           10183         13.7671         13.7667    -851.343E-06    -9.68170E-03
           10184         12.4313         12.4306    -1.35206E-03    -9.82755E-03
           10185         11.1111         11.1102    -1.90905E-03    -9.91707E-03
           10186         9.81358         9.81230    -2.52719E-03    -9.93530E-03
           10187         8.54662         8.54499    -3.21129E-03    -9.86383E-03
           10188         7.31903         7.31702    -3.96603E-03    -9.67936E-03
           10189         6.14064         6.13822    -4.79553E-03    -9.35237E-03
           10190         5.02237         5.01949    -5.70249E-03    -8.84530E-03
           10191         3.97631         3.97294    -6.68748E-03    -8.10831E-03
           10192         3.01583         3.01192    -7.74524E-03    -7.08035E-03
           10193         2.15559         2.15112    -8.86653E-03    -5.66332E-03
           10194         1.41159         1.40654    -10.0129E-03    -3.78720E-03
           10195     800.944E-03     795.297E-03    -11.1741E-03    -1.10218E-03
           10196     342.063E-03     335.837E-03    -12.0981E-03     1.92183E-03
           10197     55.0495E-03     45.1339E-03    -13.2336E-03     8.51428E-03
           10198     50.2817E-03    -52.1476E-03    -11.3040E-03     8.91566E-03
           10199     102.185E-03     36.3601E-03    -16.9376E-03     50.9515E-03
           10200     542.863E-03     511.465E-03     146.131E-03     55.3381E-03
           10201         1.42760         1.12688    -262.206E-03     366.940E-03
           10202         135.883         140.009         16.6522         17.4727
           10203         105.177         104.834         2.66023         10.5430
           10204         97.5171         96.8349         18.4321         22.8876
           10205         129.136         129.902         32.3384         31.3932
           10206         99.9338         97.9254        -3.88904    -686.463E-03
           10207         91.5099         91.2150     243.412E-03         5.00276
           10208         97.2946         96.7253         7.22645         15.8429
           10209         85.6795         86.0119     678.243E-03     520.409E-03
           10210         82.9995         83.0636     521.956E-03         3.28774
           10211         88.6063         88.2492         1.78434         8.48904
           10212         79.0601         78.8597    -398.957E-03    -99.5844E-03
           10213         77.5916         77.6107     229.552E-03         2.22069
           10214         81.8161         81.7309     998.399E-03         5.61371
           10215         74.3577         74.3360    -43.2846E-03     2.65235E-03
           10216         73.7146         73.7384     158.989E-03         1.65325
           10217         77.0757         77.0264     514.080E-03         3.95419
           10218         71.0799         71.0410    -77.8022E-03    -27.2399E-03
           10219         70.7778         70.7937     100.582E-03         1.27259
           10220         73.5065         73.4893     328.000E-03         2.97340
           10221         68.5557         68.5352    -40.8874E-03    -17.1131E-03
           10222         68.4695         68.4830     72.3279E-03         1.01576
           10223         70.7501         70.7454     220.315E-03         2.32416
           10224         66.5646         66.5482    -32.6205E-03    -16.3240E-03
           10225         66.6049         66.6159     52.8531E-03     829.022E-03
           10226         68.5509         68.5529     157.662E-03         1.87105
           10227         64.9451         64.9333    -23.6484E-03    -13.5111E-03
           10228         65.0674         65.0766     40.3314E-03     689.447E-03
           10229         66.7560         66.7613     117.344E-03         1.53913
           10230         63.6033         63.5941    -18.4091E-03    -11.7428E-03
           10231         63.7787         63.7865     31.4434E-03     581.726E-03
           10232         65.2638         65.2707     90.0782E-03         1.28777
           10233         62.4739         62.4667    -14.4557E-03    -10.1739E-03
           10234         62.6843         62.6909     25.0334E-03     496.827E-03
           10235         64.0047         64.0121     70.7920E-03         1.09227
           10236         61.5113         61.5055    -11.6014E-03    -8.93213E-03
           10237         61.7443         61.7499     20.2296E-03     428.711E-03
           10238         62.9290         62.9364     56.6574E-03     937.105E-03
           10239         60.6821         60.6774    -9.42763E-03    -7.90265E-03
           10240         60.9291         60.9340     16.5464E-03     373.320E-03
           10241         62.0004         62.0074     45.9920E-03     811.951E-03
           10242         59.9612         59.9573    -7.74672E-03    -7.04974E-03
           10243         60.2161         60.2202     13.6569E-03     327.797E-03
           10244         61.1911         61.1977     37.7426E-03     709.743E-03
           10245         59.3290         59.3258    -6.41649E-03    -6.33226E-03
           10246         59.5873         59.5909     11.3472E-03     290.088E-03
           10247         60.4800         60.4859     31.2257E-03     625.473E-03
           10248         58.7703         58.7676    -5.34571E-03    -5.72238E-03
           10249         59.0286         59.0316     9.46961E-03     258.676E-03
           10250         59.8502         59.8554     25.9819E-03     555.503E-03
           10251         58.2726         58.2704    -4.46976E-03    -5.19800E-03
           10252         58.5283         58.5309     7.92031E-03     232.420E-03
           10253         59.2881         59.2926     21.6934E-03     497.130E-03
           10254         57.8258         57.8240    -3.74304E-03    -4.74235E-03
           10255         58.0771         58.0792     6.62467E-03     210.446E-03
           10256         58.7827         58.7866     18.1353E-03     448.305E-03
           10257         57.4216         57.4200    -3.13236E-03    -4.34233E-03
           10258         57.6668         57.6686     5.52792E-03     192.074E-03
           10259         58.3249         58.3282     15.1445E-03     407.450E-03
           10260         57.0528         57.0515    -2.61318E-03    -3.98769E-03
           10261         57.2908         57.2923     4.58916E-03     176.767E-03
           10262         57.9070         57.9097     12.6007E-03     373.330E-03
           10263         56.7135         56.7124    -2.16706E-03    -3.67033E-03
           10264         56.9433         56.9445     3.77738E-03     164.095E-03
           10265         57.5225         57.5246     10.4137E-03     344.964E-03
           10266         56.3984         56.3975    -1.77991E-03    -3.38376E-03
           10267         56.6193         56.6202     3.06872E-03     153.713E-03
           10268         57.1659         57.1674     8.51443E-03     321.568E-03
           10269         56.1032         56.1024    -1.44087E-03    -3.12275E-03
           10270         56.3146         56.3153     2.44461E-03     145.337E-03
           10271         56.8323         56.8333     6.84984E-03     302.503E-03
           10272         55.8238         55.8232    -1.14141E-03    -2.88308E-03
           10273         56.0253         56.0257     1.89040E-03     138.736E-03
           10274         56.5175         56.5180     5.37828E-03     287.248E-03
           10275         55.5567         55.5563    -874.774E-06    -2.66124E-03
           10276         55.7480         55.7482     1.39443E-03     133.715E-03
           10277         56.2178         56.2179     4.06682E-03     275.372E-03
           10278         55.2989         55.2986    -635.588E-06    -2.45431E-03
           10279         55.4797         55.4797     947.348E-06     130.113E-03
           10280         55.9299         55.9295     2.88916E-03     266.517E-03
           10281         55.0476         55.0474    -419.502E-06    -2.25988E-03
           10282         55.2176         55.2175     541.548E-06     127.795E-03
           10283         55.6509         55.6500     1.82407E-03     260.380E-03
           10284         54.8001         54.8000    -222.974E-06    -2.07593E-03
           10285         54.9594         54.9590     170.829E-06     126.645E-03
           10286         55.3780         55.3766     854.303E-06     256.709E-03
           10287         54.5544         54.5543    -43.1163E-06    -1.90069E-03
           10288         54.7027         54.7022    -169.917E-06     126.565E-03
           10289         55.1089         55.1071    -34.2822E-06     255.287E-03
           10290         54.3081         54.3082     122.470E-06    -1.73271E-03
           10291         54.4456         54.4449    -484.918E-06     127.471E-03
           10292         54.8413         54.8391    -853.355E-06     255.931E-03
           10293         54.0594         54.0595     275.759E-06    -1.57068E-03
           10294         54.1860         54.1851    -777.695E-06     129.290E-03
           10295         54.5733         54.5706    -1.61259E-03     258.482E-03
           10296         53.8064         53.8066     418.414E-06    -1.41348E-03
           10297         53.9222         53.9212    -1.05119E-03     131.960E-03
           10298         54.3029         54.2998    -2.32007E-03     262.804E-03
           10299         53.5475         53.5478     551.813E-06    -1.26014E-03
           10300         53.6526         53.6514    -1.30789E-03     135.427E-03
           10301         54.0285         54.0250    -2.98257E-03     268.779E-03
           10302         53.2811         53.2814     677.129E-06    -1.10976E-03
           10303         53.3755         53.3742    -1.54986E-03     139.643E-03
           10304         53.7483         53.7444    -3.60577E-03     276.302E-03
           10305         53.0056         53.0060     795.338E-06    -961.602E-06
           10306         53.0897         53.0882    -1.77888E-03     144.565E-03
           10307         53.4609         53.4566    -4.19447E-03     285.285E-03
           10308         52.7198         52.7202     907.275E-06    -814.945E-06
           10309         52.7936         52.7920    -1.99642E-03     150.158E-03
           10310         53.1649         53.1601    -4.75275E-03     295.648E-03
           10311         52.4222         52.4227     1.01364E-03    -669.163E-06
           10312         52.4860         52.4842    -2.20375E-03     156.388E-03
           10313         52.8590         52.8536    -5.28400E-03     307.319E-03
           10314         52.1115         52.1121     1.11502E-03    -523.660E-06
           10315         52.1656         52.1636    -2.40193E-03     163.226E-03
           10316         52.5417         52.5359    -5.79114E-03     320.236E-03
           10317         51.7866         51.7872     1.21192E-03    -377.908E-06
           10318         51.8312         51.8291    -2.59183E-03     170.645E-03
           10319         52.2120         52.2056    -6.27658E-03     334.343E-03
           10320         51.4463         51.4470     1.30475E-03    -231.430E-06
           10321         51.4818         51.4795    -2.77422E-03     178.623E-03
           10322         51.8686         51.8617    -6.74236E-03     349.590E-03
           10323         51.0895         51.0902     1.39385E-03    -83.7408E-06
           10324         51.1161         51.1136    -2.94968E-03     187.136E-03
           10325         51.5105         51.5030    -7.19017E-03     365.929E-03
           10326         50.7150         50.7158     1.47951E-03     65.5800E-06
           10327         50.7332         50.7305    -3.11871E-03     196.165E-03
           10328         51.1366         51.1285    -7.62136E-03     383.318E-03
           10329         50.3219         50.3227     1.56196E-03     216.946E-06
           10330         50.3321         50.3292    -3.28170E-03     205.691E-03
           10331         50.7459         50.7372    -8.03705E-03     401.718E-03
           10332         49.9092         49.9100     1.64136E-03     370.748E-06
           10333         49.9117         49.9086    -3.43895E-03     215.696E-03
           10334         50.3375         50.3280    -8.43807E-03     421.092E-03
           10335         49.4758         49.4767     1.71785E-03     527.360E-06
           10336         49.4712         49.4679    -3.59064E-03     226.162E-03
           10337         49.9103         49.9000    -8.82502E-03     441.404E-03
           10338         49.0209         49.0218     1.79150E-03     687.122E-06
           10339         49.0097         49.0061    -3.73690E-03     237.074E-03
           10340         49.4635         49.4524    -9.19832E-03     462.620E-03
           10341         48.5435         48.5444     1.86237E-03     850.409E-06
           10342         48.5262         48.5224    -3.87776E-03     248.415E-03
           10343         48.9962         48.9843    -9.55814E-03     484.706E-03
           10344         48.0427         48.0437     1.93044E-03     1.01752E-03
           10345         48.0200         48.0159    -4.01319E-03     260.168E-03
           10346         48.5077         48.4948    -9.90450E-03     507.630E-03
           10347         47.5178         47.5188     1.99569E-03     1.18882E-03
           10348         47.4903         47.4859    -4.14307E-03     272.317E-03
           10349         47.9971         47.9831    -10.2372E-03     531.358E-03
           10350         46.9679         46.9689     2.05804E-03     1.36455E-03
           10351         46.9362         46.9315    -4.26721E-03     284.845E-03
           10352         47.4636         47.4486    -10.5558E-03     555.856E-03
           10353         46.3923         46.3933     2.11739E-03     1.54507E-03
           10354         46.3571         46.3521    -4.38536E-03     297.734E-03
           10355         46.9066         46.8904    -10.8598E-03     581.089E-03
           10356         45.7901         45.7912     2.17358E-03     1.73062E-03
           10357         45.7523         45.7469    -4.49716E-03     310.965E-03
           10358         46.3254         46.3079    -11.1485E-03     607.020E-03
           10359         45.1607         45.1618     2.22642E-03     1.92151E-03
           10360         45.1211         45.1153    -4.60221E-03     324.519E-03
           10361         45.7194         45.7005    -11.4208E-03     633.611E-03
           10362         44.5035         44.5046     2.27571E-03     2.11798E-03
           10363         44.4629         44.4567    -4.70002E-03     338.375E-03
           10364         45.0879         45.0675    -11.6757E-03     660.820E-03
           10365         43.8178         43.8189     2.32116E-03     2.32031E-03
           10366         43.7771         43.7705    -4.78999E-03     352.509E-03
           10367         44.4304         44.4084    -11.9117E-03     688.604E-03
           10368         43.1029         43.1041     2.36248E-03     2.52868E-03
           10369         43.0633         43.0562    -4.87147E-03     366.898E-03
           10370         43.7464         43.7227    -12.1274E-03     716.914E-03
           10371         42.3585         42.3597     2.39931E-03     2.74339E-03
           10372         42.3209         42.3133    -4.94369E-03     381.514E-03
           10373         43.0355         43.0100    -12.3209E-03     745.700E-03
           10374         41.5840         41.5852     2.43124E-03     2.96457E-03
           10375         41.5496         41.5414    -5.00579E-03     396.329E-03
           10376         42.2972         42.2697    -12.4903E-03     774.904E-03
           10377         40.7789         40.7802     2.45784E-03     3.19242E-03
           10378         40.7489         40.7402    -5.05683E-03     411.310E-03
           10379         41.5313         41.5016    -12.6331E-03     804.466E-03
           10380         39.9430         39.9443     2.47860E-03     3.42710E-03
           10381         39.9187         39.9093    -5.09571E-03     426.423E-03
           10382         40.7374         40.7054    -12.7470E-03     834.320E-03
           10383         39.0760         39.0772     2.49296E-03     3.66871E-03
           10384         39.0586         39.0486    -5.12125E-03     441.629E-03
           10385         39.9154         39.8809    -12.8290E-03     864.391E-03
           10386         38.1775         38.1788     2.50030E-03     3.91735E-03
           10387         38.1687         38.1579    -5.13211E-03     456.887E-03
           10388         39.0652         39.0280    -12.8759E-03     894.599E-03
           10389         37.2476         37.2488     2.49994E-03     4.17298E-03
           10390         37.2488         37.2372    -5.12684E-03     472.150E-03
           10391         38.1867         38.1466    -12.8843E-03     924.856E-03
           10392         36.2861         36.2873     2.49111E-03     4.43572E-03
           10393         36.2989         36.2866    -5.10380E-03     487.368E-03
           10394         37.2799         37.2367    -12.8502E-03     955.065E-03
           10395         35.2931         35.2943     2.47298E-03     4.70538E-03
           10396         35.3194         35.3061    -5.06121E-03     502.484E-03
           10397         36.3451         36.2986    -12.7695E-03     985.119E-03
           10398         34.2688         34.2700     2.44464E-03     4.98191E-03
           10399         34.3103         34.2961    -4.99712E-03     517.437E-03
           10400         35.3825         35.3325    -12.6373E-03         1.01490
           10401         33.2135         33.2147     2.40505E-03     5.26497E-03
           10402         33.2722         33.2570    -4.90932E-03     532.160E-03
           10403         34.3925         34.3386    -12.4485E-03         1.04428
           10404         32.1277         32.1289     2.35313E-03     5.55432E-03
           10405         32.2056         32.1893    -4.79546E-03     546.578E-03
           10406         33.3756         33.3177    -12.1974E-03         1.07312
           10407         31.0119         31.0131     2.28765E-03     5.84948E-03
           10408         31.1112         31.0937    -4.65291E-03     560.609E-03
           10409         32.3325         32.2703    -11.8776E-03         1.10126
           10410         29.8669         29.8680     2.20726E-03     6.14981E-03
           10411         29.9899         29.9712    -4.47878E-03     574.163E-03
           10412         31.2641         31.1972    -11.4823E-03         1.12853
           10413         28.6936         28.6947     2.11052E-03     6.45466E-03
           10414         28.8428         28.8227    -4.26991E-03     587.142E-03
           10415         30.1714         30.0995    -11.0038E-03         1.15474
           10416         27.4932         27.4942     1.99577E-03     6.76304E-03
           10417         27.6710         27.6495    -4.02279E-03     599.436E-03
           10418         29.0555         28.9783    -10.4337E-03         1.17969
           10419         26.2670         26.2679     1.86131E-03     7.07377E-03
           10420         26.4762         26.4531    -3.73362E-03     610.926E-03
           10421         27.9178         27.8351    -9.76284E-03         1.20314
           10422         25.0166         25.0174     1.70514E-03     7.38534E-03
           10423         25.2600         25.2353    -3.39817E-03     621.480E-03
           10424         26.7601         26.6714    -8.98108E-03         1.22485
           10425         23.7439         23.7447     1.52519E-03     7.69605E-03
           10426         24.0245         23.9981    -3.01180E-03     630.954E-03
           10427         25.5841         25.4891    -8.07725E-03         1.24455
           10428         22.4511         22.4518     1.31910E-03     8.00365E-03
           10429         22.7720         22.7438    -2.56943E-03     639.188E-03
           10430         24.3920         24.2904    -7.03908E-03         1.26192
           10431         21.1407         21.1413     1.08436E-03     8.30548E-03
           10432         21.5051         21.4749    -2.06545E-03     646.007E-03
           10433         23.1863         23.0777    -5.85305E-03         1.27664
           10434         19.8156         19.8160     818.153E-06     8.59828E-03
           10435         20.2268         20.1946    -1.49369E-03     651.220E-03
           10436         21.9697         21.8539    -4.50429E-03         1.28835
           10437         18.4789         18.4792     517.488E-06     8.87825E-03
           10438         18.9406         18.9062    -847.387E-06     654.615E-03
           10439         20.7453         20.6219    -2.97644E-03         1.29665
           10440         17.1345         17.1346     178.986E-06     9.14033E-03
           10441         17.6502         17.6136    -119.100E-06     655.961E-03
           10442         19.5166         19.3854    -1.25150E-03         1.30109
           10443         15.7865         15.7864    -200.887E-06     9.37882E-03
           10444         16.3600         16.3210     699.313E-06     655.002E-03
           10445         18.2874         18.1484     690.289E-06         1.30120
           10446         14.4396         14.4393    -626.070E-06     9.58648E-03
           10447         15.0747         15.0332     1.61676E-03     651.459E-03
           10448         17.0620         16.9151     2.87059E-03         1.29644
           10449         13.0992         13.0987    -1.10074E-03     9.75458E-03
           10450         13.7997         13.7557     2.64293E-03     645.026E-03
           10451         15.8452         15.6905     5.31306E-03         1.28625
           10452         11.7712         11.7704    -1.62937E-03     9.87223E-03
           10453         12.5410         12.4945     3.78830E-03     635.366E-03
           10454         14.6421         14.4800     8.04342E-03         1.26999
           10455         10.4624         10.4612    -2.21667E-03     9.92608E-03
           10456         11.3052         11.2563     5.06407E-03     622.113E-03
           10457         13.4585         13.2896     11.0894E-03         1.24697
           10458         9.18012         9.17867    -2.86739E-03     9.89945E-03
           10459         10.0997         10.0484     6.48199E-03     604.868E-03
           10460         12.3005         12.1260     14.4805E-03         1.21645
           10461         7.93285         7.93103    -3.58633E-03     9.77147E-03
           10462         8.93243         8.87915     8.05412E-03     583.197E-03
           10463         11.1750         10.9964     18.2474E-03         1.17760
           10464         6.72986         6.72765    -4.37778E-03     9.51575E-03
           10465         7.81235         7.75752     9.79208E-03     556.635E-03
           10466         10.0890         9.90871     22.4209E-03         1.12957
           10467         5.58153         5.57889    -5.24522E-03     9.09872E-03
           10468         6.74911         6.69349     11.7063E-03     524.688E-03
           10469         9.05045         8.87163     27.0298E-03         1.07142
           10470         4.49937         4.49625    -6.18971E-03     8.47654E-03
           10471         5.75318         5.69794     13.8031E-03     486.841E-03
           10472         8.06742         7.89446     32.0975E-03         1.00220
           10473         3.49611         3.49247    -7.21055E-03     7.59462E-03
           10474         4.83578         4.78265     16.0852E-03     442.571E-03
           10475         7.14860         6.98711     37.6344E-03     920.928E-03
           10476         2.58575         2.58156    -8.29331E-03     6.37026E-03
           10477         4.00883         3.96033     18.5297E-03     391.394E-03
           10478         6.30312         6.16003     43.6289E-03     826.692E-03
           10479         1.78362         1.77886    -9.44049E-03     4.73107E-03
           10480         3.28481         3.24434     21.1408E-03     332.881E-03
           10481         5.54073         5.42391     50.0166E-03     718.705E-03
           10482         1.10631         1.10100    -10.5214E-03     2.42259E-03
           10483         2.67688         2.64843     23.6887E-03     266.887E-03
           10484         4.87200         4.78925     56.6781E-03     596.552E-03
           10485     571.461E-03     565.465E-03    -11.8086E-03    -323.784E-06
           10486         2.19856         2.18610     26.6093E-03     193.290E-03
           10487         4.30870         4.26556     63.2640E-03     460.318E-03
           10488     197.612E-03     191.233E-03    -11.7610E-03    -5.56720E-03
           10489         1.86611         1.86919     27.4123E-03     113.956E-03
           10490         3.86339         3.85964     69.4269E-03     312.034E-03
           10491     18.5311E-03    -5.83589E-03    -15.4894E-03    -7.29874E-03
           10492         1.68917         1.70558     34.6562E-03     26.9480E-03
           10493         3.54630         3.57279     74.1040E-03     153.444E-03
           10494     59.1239E-03     4.07863E-03    -1.37907E-03    -34.0170E-03
           10495         1.69112         1.69678     15.9999E-03    -50.4332E-03
           10496         3.35374         3.39030     74.4109E-03     4.16212E-03
           10497     233.122E-03     202.183E-03    -50.0455E-03     16.7803E-03
           10498         1.73935         1.78812     183.124E-03    -176.967E-03
           10499         3.24015         3.26418     74.5305E-03    -155.242E-03
           10500     983.879E-03     880.073E-03     46.2381E-03    -278.115E-03
           10501         2.08536         1.84242    -421.404E-03    -8.86071E-03
           10502         3.03048         2.96028    -133.513E-03     15.1415E-03
           10503         94.5138         93.6635         14.0311         20.5974
           10504         83.5035         84.2104         21.8897         20.3686
           10505         86.5624         88.5049         28.1702         21.2883
           10506         89.3175         88.9462         6.16192         13.8592
           10507         86.8866         86.4316         12.9332         18.5237
           10508         83.5725         83.4473         2.86678         9.16321
           10509         84.4533         84.0684         6.56361         13.8270
           10510         79.0233         79.0096         1.68029         6.63568
           10511         80.8885         80.7295         3.71423         10.1940
           10512         75.3512         75.3749         1.05439         4.99294
           10513         77.3730         77.3219         2.22596         7.63897
           10514         72.4454         72.4834     714.021E-03         3.90463
           10515         74.3509         74.3583         1.45828         5.92206
           10516         70.0876         70.1297     508.458E-03         3.13561
           10517         71.8262         71.8599         1.00907         4.71335
           10518         68.1480         68.1897     376.581E-03         2.57275
           10519         69.7169         69.7624     731.640E-03         3.83684
           10520         66.5274         66.5667     287.606E-03         2.14684
           10521         67.9431         67.9925     549.424E-03         3.18025
           10522         65.1560         65.1922     224.952E-03         1.81643
           10523         66.4374         66.4866     424.107E-03         2.67552
           10524         63.9825         64.0153     179.318E-03         1.55481
           10525         65.1474         65.1943     334.565E-03         2.27904
           10526         62.9685         62.9978     145.095E-03         1.34428
           10527         64.0324         64.0760     268.498E-03         1.96207
           10528         62.0845         62.1106     118.793E-03         1.17264
           10529         63.0607         63.1005     218.421E-03         1.70504
           10530         61.3077         61.3307     98.1437E-03         1.03127
           10531         62.2075         62.2432     179.574E-03         1.49424
           10532         60.6200         60.6401     81.6286E-03     913.937E-03
           10533         61.4528         61.4845     148.828E-03         1.31980
           10534         60.0067         60.0241     68.2013E-03     815.994E-03
           10535         60.7807         60.8085     124.060E-03         1.17448
           10536         59.4559         59.4709     57.1232E-03     733.942E-03
           10537         60.1780         60.2022     103.794E-03         1.05285
           10538         58.9579         58.9705     47.8620E-03     665.094E-03
           10539         59.6340         59.6547     86.9764E-03     950.770E-03
           10540         58.5042         58.5147     40.0261E-03     607.350E-03
           10541         59.1395         59.1569     72.8434E-03     865.026E-03
           10542         58.0879         58.0965     33.3231E-03     559.052E-03
           10543         58.6871         58.7014     60.8282E-03     793.099E-03
           10544         57.7030         57.7097     27.5308E-03     518.873E-03
           10545         58.2701         58.2815     50.5046E-03     732.984E-03
           10546         57.3443         57.3494     22.4782E-03     485.742E-03
           10547         57.8829         57.8916     41.5471E-03     683.067E-03
           10548         57.0074         57.0108     18.0323E-03     458.782E-03
           10549         57.5208         57.5269     33.7039E-03     642.038E-03
           10550         56.6882         56.6902     14.0880E-03     437.271E-03
           10551         57.1793         57.1829     26.7779E-03     608.819E-03
           10552         56.3832         56.3838     10.5617E-03     420.611E-03
           10553         56.8547         56.8561     20.6129E-03     582.522E-03
           10554         56.0894         56.0886     7.38635E-03     408.300E-03
           10555         56.5438         56.5429     15.0841E-03     562.404E-03
           10556         55.8038         55.8018     4.50732E-03     399.915E-03
           10557         56.2434         56.2404     10.0909E-03     547.843E-03
           10558         55.5241         55.5208     1.88019E-03     395.099E-03
           10559         55.9509         55.9459     5.55140E-03     538.313E-03
           10560         55.2477         55.2432    -531.669E-06     393.547E-03
           10561         55.6639         55.6569     1.39840E-03     533.365E-03
           10562         54.9727         54.9670    -2.75856E-03     394.997E-03
           10563         55.3801         55.3712    -2.42344E-03     532.619E-03
           10564         54.6970         54.6902    -4.82572E-03     399.224E-03
           10565         55.0974         55.0866    -5.96005E-03     535.743E-03
           10566         54.4189         54.4110    -6.75425E-03     406.032E-03
           10567         54.8141         54.8014    -9.24976E-03     542.456E-03
           10568         54.1367         54.1277    -8.56190E-03     415.252E-03
           10569         54.5283         54.5137    -12.3247E-03     552.509E-03
           10570         53.8489         53.8386    -10.2636E-03     426.735E-03
           10571         54.2384         54.2219    -15.2119E-03     565.687E-03
           10572         53.5538         53.5425    -11.8719E-03     440.351E-03
           10573         53.9429         53.9246    -17.9341E-03     581.802E-03
           10574         53.2503         53.2378    -13.3975E-03     455.983E-03
           10575         53.6405         53.6201    -20.5105E-03     600.687E-03
           10576         52.9370         52.9232    -14.8494E-03     473.529E-03
           10577         53.3297         53.3073    -22.9573E-03     622.193E-03
           10578         52.6126         52.5975    -16.2351E-03     492.897E-03
           10579         53.0093         52.9849    -25.2884E-03     646.190E-03
           10580         52.2760         52.2596    -17.5611E-03     514.005E-03
           10581         52.6782         52.6515    -27.5152E-03     672.558E-03
           10582         51.9260         51.9083    -18.8327E-03     536.776E-03
           10583         52.3351         52.3062    -29.6473E-03     701.190E-03
           10584         51.5617         51.5425    -20.0541E-03     561.143E-03
           10585         51.9790         51.9477    -31.6927E-03     731.989E-03
           10586         51.1819         51.1612    -21.2289E-03     587.042E-03
           10587         51.6090         51.5751    -33.6580E-03     764.864E-03
           10588         50.7857         50.7634    -22.3600E-03     614.412E-03
           10589         51.2239         51.1874    -35.5484E-03     799.732E-03
           10590         50.3722         50.3482    -23.4493E-03     643.197E-03
           10591         50.8230         50.7836    -37.3679E-03     836.514E-03
           10592         49.9406         49.9147    -24.4984E-03     673.344E-03
           10593         50.4052         50.3629    -39.1195E-03     875.134E-03
           10594         49.4898         49.4620    -25.5082E-03     704.800E-03
           10595         49.9699         49.9243    -40.8051E-03     915.521E-03
           10596         49.0192         48.9893    -26.4789E-03     737.513E-03
           10597         49.5160         49.4670    -42.4258E-03     957.603E-03
           10598         48.5279         48.4958    -27.4103E-03     771.431E-03
           10599         49.0430         48.9903    -43.9815E-03         1.00131
           10600         48.0152         47.9808    -28.3017E-03     806.503E-03
           10601         48.5500         48.4934    -45.4716E-03         1.04657
           10602         47.4805         47.4435    -29.1518E-03     842.674E-03
           10603         48.0365         47.9757    -46.8943E-03         1.09332
           10604         46.9230         46.8833    -29.9587E-03     879.890E-03
           10605         47.5016         47.4363    -48.2472E-03         1.14147
           10606         46.3421         46.2995    -30.7202E-03     918.092E-03
           10607         46.9449         46.8748    -49.5269E-03         1.19096
           10608         45.7373         45.6915    -31.4335E-03     957.220E-03
           10609         46.3658         46.2905    -50.7291E-03         1.24170
           10610         45.1080         45.0589    -32.0950E-03     997.207E-03
           10611         45.7637         45.6828    -51.8488E-03         1.29360
           10612         44.4537         44.4010    -32.7008E-03         1.03798
           10613         45.1382         45.0514    -52.8798E-03         1.34658
           10614         43.7740         43.7175    -33.2463E-03         1.07948
           10615         44.4888         44.3957    -53.8151E-03         1.40054
           10616         43.0686         43.0079    -33.7263E-03         1.12160
           10617         43.8153         43.7154    -54.6466E-03         1.45537
           10618         42.3370         42.2719    -34.1348E-03         1.16427
           10619         43.1173         43.0101    -55.3654E-03         1.51096
           10620         41.5791         41.5092    -34.4653E-03         1.20739
           10621         42.3945         42.2795    -55.9610E-03         1.56719
           10622         40.7946         40.7197    -34.7103E-03         1.25085
           10623         41.6468         41.5234    -56.4221E-03         1.62391
           10624         39.9834         39.9031    -34.8616E-03         1.29454
           10625         40.8740         40.7418    -56.7359E-03         1.68099
           10626         39.1456         39.0594    -34.9101E-03         1.33832
           10627         40.0762         39.9345    -56.8882E-03         1.73825
           10628         38.2811         38.1887    -34.8458E-03         1.38207
           10629         39.2534         39.1015    -56.8633E-03         1.79553
           10630         37.3901         37.2911    -34.6575E-03         1.42563
           10631         38.4057         38.2430    -56.6439E-03         1.85263
           10632         36.4728         36.3668    -34.3331E-03         1.46884
           10633         37.5334         37.3592    -56.2111E-03         1.90934
           10634         35.5297         35.4161    -33.8590E-03         1.51150
           10635         36.6367         36.4504    -55.5438E-03         1.96543
           10636         34.5611         34.4396    -33.2205E-03         1.55343
           10637         35.7163         35.5171    -54.6191E-03         2.02064
           10638         33.5679         33.4379    -32.4015E-03         1.59440
           10639         34.7727         34.5598    -53.4116E-03         2.07470
           10640         32.5506         32.4116    -31.3840E-03         1.63416
           10641         33.8065         33.5791    -51.8936E-03         2.12729
           10642         31.5103         31.3617    -30.1486E-03         1.67247
           10643         32.8187         32.5761    -50.0348E-03         2.17810
           10644         30.4480         30.2894    -28.6739E-03         1.70902
           10645         31.8102         31.5516    -47.8017E-03         2.22675
           10646         29.3651         29.1959    -26.9364E-03         1.74350
           10647         30.7823         30.5070    -45.1581E-03         2.27284
           10648         28.2630         28.0827    -24.9104E-03         1.77557
           10649         29.7363         29.4435    -42.0638E-03         2.31593
           10650         27.1434         26.9515    -22.5678E-03         1.80483
           10651         28.6738         28.3628    -38.4752E-03         2.35554
           10652         26.0083         25.8043    -19.8777E-03         1.83087
           10653         27.5964         27.2667    -34.3444E-03         2.39116
           10654         24.8599         24.6434    -16.8063E-03         1.85324
           10655         26.5062         26.1573    -29.6191E-03         2.42220
           10656         23.7006         23.4713    -13.3169E-03         1.87144
           10657         25.4054         25.0369    -24.2422E-03         2.44805
           10658         22.5333         22.2908    -9.36896E-03         1.88491
           10659         24.2963         23.9082    -18.1513E-03         2.46801
           10660         21.3608         21.1052    -4.91856E-03         1.89306
           10661         23.1816         22.7741    -11.2784E-03         2.48135
           10662         20.1867         19.9180     82.0972E-06         1.89524
           10663         22.0642         21.6378    -3.54983E-03         2.48724
           10664         19.0146         18.7333     5.68491E-03         1.89074
           10665         20.9473         20.5030     5.11435E-03         2.48482
           10666         17.8486         17.5554     11.9458E-03         1.87878
           10667         19.8343         19.3736     14.8002E-03         2.47311
           10668         16.6931         16.3892     18.9246E-03         1.85851
           10669         18.7289         18.2542     25.5997E-03         2.45109
           10670         15.5529         15.2401     26.6845E-03         1.82904
           10671         17.6350         17.1494     37.6100E-03         2.41762
           10672         14.4331         14.1140     35.2913E-03         1.78937
           10673         16.5567         16.0645     50.9320E-03         2.37151
           10674         13.3392         13.0172     44.8107E-03         1.73846
           10675         15.4985         15.0052     65.6673E-03         2.31148
           10676         12.2770         11.9568     55.3059E-03         1.67518
           10677         14.4650         13.9776     81.9135E-03         2.23616
           10678         11.2528         10.9402     66.8308E-03         1.59838
           10679         13.4610         12.9882     99.7558E-03         2.14415
           10680         10.2731         9.97546     79.4205E-03         1.50686
           10681         12.4919         12.0440     119.252E-03         2.03401
           10682         9.34476         9.07110     93.0735E-03         1.39944
           10683         11.5630         11.1521     140.411E-03         1.90435
           10684         8.47538         8.23591     107.724E-03         1.27506
           10685         10.6805         10.3199     163.149E-03         1.75389
           10686         7.67312         7.47881     123.186E-03         1.13287
           10687         9.85111         9.55476     187.221E-03         1.58164
           10688         6.94728         6.80845     139.077E-03     972.494E-03
           10689         9.08291         8.86350     212.099E-03         1.38716
           10690         6.30860         6.23258     154.611E-03     794.381E-03
           10691         8.38527         8.25206     236.739E-03         1.17102
           10692         5.76921         5.75692     168.434E-03     600.810E-03
           10693         7.76913         7.72455     259.222E-03     935.586E-03
           10694         5.34129         5.38362     177.627E-03     396.143E-03
           10695         7.24640         7.28189     275.559E-03     686.770E-03
           10696         5.03121         5.10622     177.398E-03     194.867E-03
           10697         6.82714         6.92037     278.937E-03     436.230E-03
           10698         4.82903         4.90488     155.552E-03     10.5423E-03
           10699         6.51719         6.62756     248.687E-03     212.594E-03
           10700         4.73400         4.75859     50.1670E-03    -18.5624E-03
           10701         6.34580         6.41216     136.745E-03     61.9342E-03
           10702         4.89210         4.69345    -375.068E-03    -32.4937E-03
           10703         6.38881         6.29496    -183.723E-03     3.74627E-03
           10704         82.0798         82.1176         17.9046         19.5228
           10705         76.5918         77.7734         20.9519         18.3314
           10706         78.8694         80.7336         24.3819         18.9423
           10707         82.8172         82.4944         10.6355         16.5086
           10708         78.9318         79.0745         15.3623         17.8532
           10709         80.8879         80.6975         6.32656         12.9265
           10710         79.2889         79.1761         10.2648         15.5480
           10711         78.0389         78.0004         4.00267         10.0364
           10712         78.0623         77.9761         6.64422         12.7461
           10713         75.3288         75.3658         2.65193         7.90045
           10714         76.0401         76.0416         4.41520         10.2635
           10715         72.9065         72.9824         1.85319         6.34394
           10716         73.9209         73.9849         3.05740         8.31438
           10717         70.8093         70.9006         1.34564         5.18518
           10718         71.9217         72.0189         2.19292         6.81011
           10719         69.0045         69.0997         1.01008         4.30614
           10720         70.1224         70.2350         1.62735         5.65228
           10721         67.4497         67.5426     778.314E-03         3.62501
           10722         68.5315         68.6479         1.24094         4.74968
           10723         66.1041         66.1916     612.688E-03         3.08763
           10724         67.1324         67.2462     968.291E-03         4.03652
           10725         64.9328         65.0135     490.691E-03         2.65690
           10726         65.9022         66.0099     769.778E-03         3.46517
           10727         63.9071         63.9803     398.480E-03         2.30706
           10728         64.8176         64.9172     621.360E-03         3.00172
           10729         63.0031         63.0689     327.195E-03         2.01979
           10730         63.8575         63.9482     507.753E-03         2.62172
           10731         62.2016         62.2600     270.990E-03         1.78182
           10732         63.0037         63.0853     418.980E-03         2.30733
           10733         61.4866         61.5380     225.893E-03         1.58331
           10734         62.2407         62.3132     348.333E-03         2.04531
           10735         60.8448         60.8897     189.142E-03         1.41688
           10736         61.5551         61.6189     291.187E-03         1.82571
           10737         60.2654         60.3040     158.768E-03         1.27689
           10738         60.9359         60.9914     244.281E-03         1.64093
           10739         59.7390         59.7718     133.345E-03         1.15894
           10740         60.3735         60.4210     205.266E-03         1.48507
           10741         59.2576         59.2850     111.818E-03         1.05960
           10742         59.8597         59.8998     172.422E-03         1.35352
           10743         58.8147         58.8370     93.3927E-03     976.118E-03
           10744         59.3875         59.4206     144.464E-03         1.24263
           10745         58.4043         58.4219     77.4675E-03     906.298E-03
           10746         58.9508         58.9773     120.422E-03         1.14944
           10747         58.0213         58.0345     63.5760E-03     848.347E-03
           10748         58.5444         58.5647     99.5510E-03         1.07159
           10749         57.6614         57.6704     51.3544E-03     800.799E-03
           10750         58.1636         58.1780     81.2717E-03         1.00712
           10751         57.3207         57.3257     40.5155E-03     762.441E-03
           10752         57.8042         57.8131     65.1297E-03     954.428E-03
           10753         56.9955         56.9968     30.8301E-03     732.263E-03
           10754         57.4628         57.4664     50.7642E-03     912.189E-03
           10755         56.6829         56.6807     22.1136E-03     709.419E-03
           10756         57.1359         57.1346     37.8861E-03     879.285E-03
           10757         56.3801         56.3744     14.2164E-03     693.195E-03
           10758         56.8208         56.8146     26.2616E-03     854.776E-03
           10759         56.0844         56.0754     7.01615E-03     682.981E-03
           10760         56.5147         56.5039     15.7004E-03     837.867E-03
           10761         55.7936         55.7814     411.953E-06     678.260E-03
           10762         56.2152         56.2000     6.04625E-03     827.880E-03
           10763         55.5056         55.4903    -5.67967E-03     678.587E-03
           10764         55.9202         55.9006    -2.83000E-03     824.232E-03
           10765         55.2185         55.2001    -11.3282E-03     683.577E-03
           10766         55.6277         55.6038    -11.0355E-03     826.423E-03
           10767         54.9304         54.9090    -16.5920E-03     692.896E-03
           10768         55.3359         55.3077    -18.6596E-03     834.019E-03
           10769         54.6397         54.6152    -21.5198E-03     706.254E-03
           10770         55.0429         55.0105    -25.7775E-03     846.643E-03
           10771         54.3448         54.3173    -26.1528E-03     723.395E-03
           10772         54.7473         54.7106    -32.4523E-03     863.962E-03
           10773         54.0444         54.0138    -30.5259E-03     744.095E-03
           10774         54.4475         54.4065    -38.7373E-03     885.688E-03
           10775         53.7370         53.7032    -34.6685E-03     768.155E-03
           10776         54.1422         54.0969    -44.6773E-03     911.563E-03
           10777         53.4215         53.3844    -38.6053E-03     795.398E-03
           10778         53.8301         53.7803    -50.3105E-03     941.359E-03
           10779         53.0964         53.0560    -42.3574E-03     825.665E-03
           10780         53.5100         53.4555    -55.6689E-03     974.872E-03
           10781         52.7609         52.7169    -45.9423E-03     858.812E-03
           10782         53.1807         53.1214    -60.7796E-03         1.01192
           10783         52.4136         52.3660    -49.3747E-03     894.709E-03
           10784         52.8411         52.7768    -65.6651E-03         1.05233
           10785         52.0538         52.0023    -52.6665E-03     933.237E-03
           10786         52.4902         52.4206    -70.3443E-03         1.09596
           10787         51.6803         51.6248    -55.8278E-03     974.284E-03
           10788         52.1270         52.0519    -74.8323E-03         1.14265
           10789         51.2922         51.2324    -58.8661E-03         1.01775
           10790         51.7506         51.6698    -79.1417E-03         1.19230
           10791         50.8887         50.8244    -61.7873E-03         1.06353
           10792         51.3601         51.2732    -83.2818E-03         1.24476
           10793         50.4689         50.3998    -64.5955E-03         1.11153
           10794         50.9548         50.8613    -87.2597E-03         1.29992
           10795         50.0320         49.9579    -67.2933E-03         1.16166
           10796         50.5338         50.4334    -91.0802E-03         1.35767
           10797         49.5773         49.4978    -69.8815E-03         1.21384
           10798         50.0963         49.9886    -94.7456E-03         1.41789
           10799         49.1041         49.0188    -72.3598E-03         1.26796
           10800         49.6417         49.5262    -98.2564E-03         1.48049
           10801         48.6117         48.5202    -74.7262E-03         1.32395
           10802         49.1693         49.0455    -101.611E-03         1.54534
           10803         48.0994         48.0013    -76.9773E-03         1.38170
           10804         48.6785         48.5458    -104.806E-03         1.61233
           10805         47.5667         47.4616    -79.1085E-03         1.44113
           10806         48.1687         48.0265    -107.835E-03         1.68136
           10807         47.0130         46.9003    -81.1134E-03         1.50213
           10808         47.6393         47.4871    -110.691E-03         1.75230
           10809         46.4378         46.3171    -82.9846E-03         1.56460
           10810         47.0900         46.9270    -113.365E-03         1.82502
           10811         45.8407         45.7114    -84.7129E-03         1.62842
           10812         46.5202         46.3457    -115.844E-03         1.89941
           10813         45.2212         45.0828    -86.2877E-03         1.69348
           10814         45.9296         45.7428    -118.116E-03         1.97531
           10815         44.5791         44.4309    -87.6968E-03         1.75965
           10816         45.3178         45.1179    -120.165E-03         2.05258
           10817         43.9139         43.7552    -88.9261E-03         1.82679
           10818         44.6845         44.4707    -121.971E-03         2.13105
           10819         43.2255         43.0557    -89.9601E-03         1.89475
           10820         44.0296         43.8009    -123.515E-03         2.21056
           10821         42.5137         42.3320    -90.7811E-03         1.96337
           10822         43.3527         43.1082    -124.774E-03         2.29092
           10823         41.7784         41.5840    -91.3694E-03         2.03247
           10824         42.6539         42.3926    -125.722E-03         2.37192
           10825         41.0195         40.8117    -91.7032E-03         2.10186
           10826         41.9330         41.6539    -126.330E-03         2.45334
           10827         40.2370         40.0149    -91.7584E-03         2.17134
           10828         41.1902         40.8921    -126.566E-03         2.53495
           10829         39.4312         39.1940    -91.5084E-03         2.24067
           10830         40.4255         40.1074    -126.395E-03         2.61647
           10831         38.6023         38.3489    -90.9239E-03         2.30959
           10832         39.6392         39.2998    -125.779E-03         2.69762
           10833         37.7504         37.4800    -89.9726E-03         2.37785
           10834         38.8314         38.4697    -124.676E-03         2.77810
           10835         36.8762         36.5878    -88.6191E-03         2.44514
           10836         38.0027         37.6173    -123.037E-03         2.85755
           10837         35.9800         35.6726    -86.8247E-03         2.51112
           10838         37.1534         36.7433    -120.813E-03         2.93561
           10839         35.0625         34.7353    -84.5468E-03         2.57545
           10840         36.2842         35.8481    -117.947E-03         3.01187
           10841         34.1246         33.7764    -81.7390E-03         2.63773
           10842         35.3958         34.9326    -114.379E-03         3.08588
           10843         33.1671         32.7971    -78.3503E-03         2.69753
           10844         34.4889         33.9975    -110.040E-03         3.15716
           10845         32.1911         31.7984    -74.3253E-03         2.75439
           10846         33.5645         33.0438    -104.858E-03         3.22517
           10847         31.1977         30.7815    -69.6031E-03         2.80779
           10848         32.6237         32.0729    -98.7532E-03         3.28935
           10849         30.1884         29.7479    -64.1175E-03         2.85719
           10850         31.6676         31.0859    -91.6384E-03         3.34906
           10851         29.1647         28.6994    -57.7962E-03         2.90196
           10852         30.6977         30.0845    -83.4187E-03         3.40361
           10853         28.1283         27.6377    -50.5606E-03         2.94145
           10854         29.7153         29.0704    -73.9911E-03         3.45226
           10855         27.0811         26.5651    -42.3248E-03         2.97494
           10856         28.7221         28.0456    -63.2435E-03         3.49419
           10857         26.0251         25.4840    -32.9958E-03         3.00163
           10858         27.7199         27.0122    -51.0541E-03         3.52853
           10859         24.9626         24.3969    -22.4728E-03         3.02068
           10860         26.7105         25.9727    -37.2915E-03         3.55432
           10861         23.8961         23.3069    -10.6466E-03         3.03116
           10862         25.6960         24.9298    -21.8136E-03         3.57051
           10863         22.8283         22.2173     2.59999E-03         3.03205
           10864         24.6785         23.8864    -4.46806E-03         3.57599
           10865         21.7618         21.1315     17.3923E-03         3.02228
           10866         23.6604         22.8458     14.9078E-03         3.56954
           10867         20.6999         20.0537     33.8634E-03         3.00066
           10868         22.6441         21.8116     36.4861E-03         3.54987
           10869         19.6456         18.9880     52.1522E-03         2.96595
           10870         21.6321         20.7875     60.4467E-03         3.51558
           10871         18.6023         17.9392     72.4016E-03         2.91679
           10872         20.6270         19.7778     86.9740E-03         3.46518
           10873         17.5735         16.9123     94.7532E-03         2.85175
           10874         19.6316         18.7870     116.251E-03         3.39711
           10875         16.5630         15.9126     119.341E-03         2.76935
           10876         18.6488         17.8196     148.451E-03         3.30972
           10877         15.5746         14.9459     146.277E-03         2.66803
           10878         17.6817         16.8809     183.722E-03         3.20134
           10879         14.6126         14.0182     175.635E-03         2.54623
           10880         16.7334         15.9759     222.163E-03         3.07026
           10881         13.6815         13.1358     207.416E-03         2.40245
           10882         15.8077         15.1100     263.788E-03         2.91485
           10883         12.7863         12.3050     241.493E-03         2.23529
           10884         14.9088         14.2887     308.460E-03         2.73361
           10885         11.9329         11.5320     277.527E-03         2.04369
           10886         14.0415         13.5172     355.792E-03         2.52536
           10887         11.1285         10.8230     314.818E-03         1.82710
           10888         13.2119         12.8004     404.979E-03         2.28947
           10889         10.3816         10.1830     352.033E-03         1.58595
           10890         12.4278         12.1427     454.511E-03         2.02628
           10891         9.70288         9.61617     386.787E-03         1.32224
           10892         11.6988         11.5475     501.640E-03         1.73765
           10893         9.10471         9.12452     414.606E-03         1.04086
           10894         11.0370         11.0168     541.565E-03         1.42796
           10895         8.60052         8.70736     427.757E-03     751.123E-03
           10896         10.4570         10.5511     565.223E-03         1.10586
           10897         8.20592         8.36203     409.160E-03     471.748E-03
           10898         9.97741         10.1507     556.698E-03     785.859E-03
           10899         7.93525         8.08267     325.436E-03     233.259E-03
           10900         9.62294         9.81763     483.092E-03     491.421E-03
           10901         7.84744         7.89336     94.7888E-03     74.0599E-03
           10902         9.43859         9.56984     288.432E-03     246.545E-03
           10903         8.03687         7.84059    -379.134E-03     323.164E-06
           10904         9.48187         9.43133    -98.8585E-03     67.8670E-03
           10905         75.6876         76.3864         18.5014         17.9321
           10906         71.9943         73.4905         20.3478         16.9673
           10907         73.0025         74.9011         22.6694         17.3517
           10908         77.2535         77.3357         13.4124         16.7793
           10909         73.9570         74.6223         16.4905         16.9290
           10910         77.0680         77.0624         9.28491         14.4934
           10911         74.9758         75.2301         12.4093         15.7201
           10912         75.8364         75.8821         6.41158         12.0896
           10913         74.8677         75.0096         9.00904         13.8243
           10914         74.1813         74.2883         4.53382         10.0061
           10915         73.9855         74.1331         6.51747         11.8156
           10916         72.4418         72.5889         3.29751         8.30964
           10917         72.7183         72.8941         4.77442         9.99381
           10918         70.7802         70.9463         2.46280         6.95513
           10919         71.3176         71.5152         3.56727         8.44907
           10920         69.2543         69.4254         1.88483         5.87572
           10921         69.9284         70.1356         2.72181         7.17582
           10922         67.8784         68.0458         1.47274         5.00994
           10923         68.6158         68.8222         2.11768         6.13427
           10924         66.6473         66.8059         1.17129         4.30940
           10925         67.4057         67.6045         1.67668         5.28186
           10926         65.5482         65.6954     945.358E-03         3.73722
           10927         66.3037         66.4907         1.34757         4.58087
           10928         64.5664         64.7008     772.343E-03         3.26572
           10929         65.3057         65.4785         1.09688         4.00087
           10930         63.6873         63.8086     637.248E-03         2.87414
           10931         64.4034         64.5609     902.253E-03         3.51792
           10932         62.8976         63.0060     529.902E-03         2.54676
           10933         63.5872         63.7290     748.489E-03         3.11343
           10934         62.1855         62.2813     443.250E-03         2.27159
           10935         62.8474         62.9738     625.067E-03         2.77295
           10936         61.5405         61.6243     372.298E-03         2.03939
           10937         62.1751         62.2865     524.555E-03         2.48521
           10938         60.9536         61.0261     313.439E-03         1.84292
           10939         61.5618         61.6589     441.609E-03         2.24135
           10940         60.4169         60.4787     264.028E-03         1.67652
           10941         61.0002         61.0836     372.323E-03         2.03435
           10942         59.9235         59.9752     222.091E-03         1.53563
           10943         60.4835         60.5540     313.796E-03         1.85861
           10944         59.4675         59.5097     186.135E-03         1.41661
           10945         60.0059         60.0643     263.842E-03         1.70961
           10946         59.0434         59.0767     155.015E-03         1.31651
           10947         59.5621         59.6090     220.793E-03         1.58368
           10948         58.6466         58.6716     127.842E-03         1.23290
           10949         59.1474         59.1835     183.360E-03         1.47782
           10950         58.2731         58.2901     103.919E-03         1.16377
           10951         58.7578         58.7836     150.534E-03         1.38956
           10952         57.9190         57.9286     82.6937E-03         1.10748
           10953         58.3894         58.4055     121.521E-03         1.31683
           10954         57.5812         57.5836     63.7233E-03         1.06262
           10955         58.0388         58.0457     95.6845E-03         1.25791
           10956         57.2566         57.2523     46.6510E-03         1.02802
           10957         57.7032         57.7013     72.5151E-03         1.21135
           10958         56.9426         56.9317     31.1861E-03         1.00269
           10959         57.3797         57.3694     51.5984E-03         1.17594
           10960         56.6368         56.6196     17.0908E-03     985.785E-03
           10961         57.0659         57.0474     32.5962E-03         1.15061
           10962         56.3368         56.3135     4.16862E-03     976.575E-03
           10963         56.7595         56.7331     15.2302E-03         1.13448
           10964         56.0407         56.0115    -7.74336E-03     974.436E-03
           10965         56.4585         56.4243    -730.017E-06         1.12678
           10966         55.7467         55.7115    -18.7810E-03     978.826E-03
           10967         56.1608         56.1191    -15.4760E-03         1.12684
           10968         55.4529         55.4118    -29.0580E-03     989.275E-03
           10969         55.8648         55.8156    -29.1681E-03         1.13408
           10970         55.1577         55.1109    -38.6704E-03         1.00537
           10971         55.5688         55.5122    -41.9409E-03         1.14800
           10972         54.8597         54.8070    -47.6986E-03         1.02675
           10973         55.2713         55.2073    -53.9079E-03         1.16816
           10974         54.5575         54.4989    -56.2111E-03         1.05310
           10975         54.9709         54.8994    -65.1646E-03         1.19416
           10976         54.2498         54.1851    -64.2654E-03         1.08412
           10977         54.6663         54.5872    -75.7922E-03         1.22566
           10978         53.9353         53.8644    -71.9104E-03         1.11958
           10979         54.3563         54.2693    -85.8590E-03         1.26235
           10980         53.6129         53.5357    -79.1873E-03         1.15924
           10981         54.0396         53.9446    -95.4230E-03         1.30394
           10982         53.2815         53.1976    -86.1305E-03         1.20289
           10983         53.7152         53.6119    -104.533E-03         1.35021
           10984         52.9401         52.8493    -92.7691E-03         1.25035
           10985         53.3821         53.2702    -113.230E-03         1.40090
           10986         52.5877         52.4897    -99.1266E-03         1.30144
           10987         53.0393         52.9184    -121.547E-03         1.45582
           10988         52.2233         52.1178    -105.223E-03         1.35600
           10989         52.6858         52.5556    -129.513E-03         1.51478
           10990         51.8462         51.7327    -111.072E-03         1.41389
           10991         52.3209         52.1808    -137.149E-03         1.57759
           10992         51.4555         51.3336    -116.687E-03         1.47496
           10993         51.9436         51.7931    -144.474E-03         1.64409
           10994         51.0504         50.9196    -122.076E-03         1.53907
           10995         51.5533         51.3918    -151.499E-03         1.71411
           10996         50.6302         50.4900    -127.243E-03         1.60609
           10997         51.1492         50.9761    -158.234E-03         1.78749
           10998         50.1942         50.0439    -132.191E-03         1.67590
           10999         50.7307         50.5453    -164.684E-03         1.86409
           11000         49.7417         49.5808    -136.918E-03         1.74835
           11001         50.2970         50.0985    -170.849E-03         1.94376
           11002         49.2721         49.1000    -141.423E-03         1.82332
           11003         49.8476         49.6353    -176.726E-03         2.02633
           11004         48.7850         48.6008    -145.697E-03         1.90068
           11005         49.3820         49.1550    -182.310E-03         2.11167
           11006         48.2797         48.0827    -149.733E-03         1.98029
           11007         48.8996         48.6569    -187.591E-03         2.19960
           11008         47.7558         47.5451    -153.518E-03         2.06200
           11009         48.4000         48.1407    -192.555E-03         2.28998
           11010         47.2128         46.9876    -157.038E-03         2.14566
           11011         47.8828         47.6057    -197.186E-03         2.38263
           11012         46.6504         46.4097    -160.276E-03         2.23112
           11013         47.3475         47.0516    -201.465E-03         2.47737
           11014         46.0683         45.8111    -163.211E-03         2.31821
           11015         46.7939         46.4780    -205.366E-03         2.57401
           11016         45.4660         45.1914    -165.820E-03         2.40674
           11017         46.2217         45.8846    -208.862E-03         2.67236
           11018         44.8436         44.5503    -168.077E-03         2.49652
           11019         45.6307         45.2710    -211.921E-03         2.77220
           11020         44.2006         43.8876    -169.952E-03         2.58734
           11021         45.0206         44.6371    -214.508E-03         2.87329
           11022         43.5371         43.2032    -171.411E-03         2.67897
           11023         44.3914         43.9826    -216.582E-03         2.97538
           11024         42.8530         42.4969    -172.416E-03         2.77117
           11025         43.7431         43.3075    -218.098E-03         3.07822
           11026         42.1483         41.7687    -172.927E-03         2.86367
           11027         43.0756         42.6117    -219.006E-03         3.18149
           11028         41.4231         41.0187    -172.898E-03         2.95617
           11029         42.3890         41.8953    -219.251E-03         3.28489
           11030         40.6776         40.2471    -172.277E-03         3.04837
           11031         41.6834         41.1584    -218.772E-03         3.38807
           11032         39.9120         39.4540    -171.011E-03         3.13991
           11033         40.9591         40.4012    -217.500E-03         3.49065
           11034         39.1267         38.6397    -169.038E-03         3.23042
           11035         40.2163         39.6240    -215.364E-03         3.59222
           11036         38.3220         37.8048    -166.292E-03         3.31948
           11037         39.4555         38.8272    -212.282E-03         3.69234
           11038         37.4985         36.9497    -162.699E-03         3.40666
           11039         38.6770         38.0112    -208.166E-03         3.79053
           11040         36.6567         36.0751    -158.180E-03         3.49146
           11041         37.8814         37.1767    -202.920E-03         3.88625
           11042         35.7975         35.1818    -152.649E-03         3.57335
           11043         37.0692         36.3244    -196.438E-03         3.97893
           11044         34.9216         34.2707    -146.011E-03         3.65176
           11045         36.2413         35.4551    -188.606E-03         4.06795
           11046         34.0298         33.3430    -138.161E-03         3.72605
           11047         35.3983         34.5699    -179.299E-03         4.15263
           11048         33.1233         32.3997    -128.990E-03         3.79553
           11049         34.5411         33.6698    -168.382E-03         4.23223
           11050         32.2032         31.4424    -118.373E-03         3.85947
           11051         33.6707         32.7562    -155.708E-03         4.30595
           11052         31.2707         30.4726    -106.180E-03         3.91705
           11053         32.7881         31.8305    -141.117E-03         4.37292
           11054         30.3272         29.4922    -92.2660E-03         3.96740
           11055         31.8945         30.8944    -124.436E-03         4.43220
           11056         29.3741         28.5030    -76.4766E-03         4.00956
           11057         30.9909         29.9496    -105.479E-03         4.48278
           11058         28.4130         27.5074    -58.6446E-03         4.04250
           11059         30.0787         28.9982    -84.0465E-03         4.52354
           11060         27.4456         26.5077    -38.5902E-03         4.06511
           11061         29.1592         28.0424    -59.9218E-03         4.55331
           11062         26.4735         25.5067    -16.1212E-03         4.07618
           11063         28.2338         27.0846    -32.8757E-03         4.57080
           11064         25.4988         24.5072     8.96646E-03         4.07443
           11065         27.3038         26.1275    -2.66413E-03         4.57465
           11066         24.5232         23.5125     36.8877E-03         4.05847
           11067         26.3708         25.1739     30.9689E-03         4.56339
           11068         23.5487         22.5260     67.8659E-03         4.02682
           11069         25.4362         24.2269     68.2894E-03         4.53545
           11070         22.5774         21.5513     102.129E-03         3.97790
           11071         24.5017         23.2897     109.568E-03         4.48919
           11072         21.6116         20.5926     139.901E-03         3.91008
           11073         23.5687         22.3661     155.074E-03         4.42286
           11074         20.6533         19.6539     181.395E-03         3.82162
           11075         22.6389         21.4595     205.059E-03         4.33467
           11076         19.7050         18.7397     226.791E-03         3.71077
           11077         21.7142         20.5740     259.741E-03         4.22275
           11078         18.7694         17.8546     276.212E-03         3.57573
           11079         20.7966         19.7135     319.277E-03         4.08527
           11080         17.8493         17.0033     329.680E-03         3.41481
           11081         19.8882         18.8820     383.710E-03         3.92041
           11082         16.9483         16.1905     387.053E-03         3.22640
           11083         18.9921         18.0838     452.904E-03         3.72651
           11084         16.0705         15.4209     447.913E-03         3.00922
           11085         18.1116         17.3227     526.433E-03         3.50220
           11086         15.2215         14.6988     511.400E-03         2.76247
           11087         17.2515         16.6026     603.401E-03         3.24654
           11088         14.4079         14.0283     575.934E-03         2.48615
           11089         16.4176         15.9268     682.165E-03         2.95938
           11090         13.6388         13.4126     638.742E-03         2.18156
           11091         15.6182         15.2984     759.883E-03         2.64170
           11092         12.9255         12.8542     695.095E-03         1.85202
           11093         14.8639         14.7197     831.747E-03         2.29621
           11094         12.2828         12.3548     736.806E-03         1.50388
           11095         14.1688         14.1929     889.759E-03         1.92812
           11096         11.7288         11.9158     749.891E-03         1.14798
           11097         13.5512         13.7203     920.539E-03         1.54605
           11098         11.2879         11.5402     709.474E-03     800.900E-03
           11099         13.0359         13.3067     901.939E-03         1.16241
           11100         10.9959         11.2390     572.642E-03     483.996E-03
           11101         12.6562         12.9617     798.512E-03     792.555E-03
           11102         10.9080         11.0364     274.521E-03     214.190E-03
           11103         12.4589         12.7045     558.927E-03     449.790E-03
           11104         11.0916         10.9596    -259.373E-03    -6.59527E-03
           11105         12.5048         12.5607     117.344E-03     141.121E-03
           11106         71.4333         72.5955         18.5885         16.6985
           11107         68.7939         70.5670         19.8469         15.9116
           11108         69.4592         71.5157         21.5498         16.1951
           11109         72.9622         73.5284         14.8351         16.2047
           11110         70.4059         71.5002         16.9341         16.0077
           11111         73.5545         73.8685         11.2966         14.8386
           11112         71.5367         72.1980         13.7080         15.3486
           11113         73.2965         73.5464         8.45526         13.0853
           11114         71.9742         72.4253         10.7277         14.1036
           11115         72.4852         72.7386         6.34246         11.3183
           11116         71.7875         72.1590         8.27282         12.5837
           11117         71.3987         71.6661         4.81220         9.72052
           11118         71.1668         71.5148         6.37581         11.0403
           11119         70.2141         70.4887         3.70784         8.34596
           11120         70.3002         70.6406         4.95138         9.61359
           11121         69.0299         69.3026         2.90294         7.18879
           11122         69.3230         69.6559         3.88889         8.35647
           11123         67.8975         68.1606         2.30726         6.22239
           11124         68.3199         68.6407         3.09278         7.27524
           11125         66.8396         67.0879         1.85888         5.41621
           11126         67.3394         67.6435         2.48989         6.35569
           11127         65.8637         66.0941         1.51543         4.74213
           11128         66.4070         66.6909         2.02714         5.57678
           11129         64.9693         65.1803         1.24793         4.17641
           11130         65.5340         65.7956         1.66684         4.91722
           11131         64.1519         64.3429         1.03626         3.69967
           11132         64.7237         64.9621         1.38223         4.35786
           11133         63.4053         63.5764     866.277E-03         3.29635
           11134         63.9751         64.1900         1.15429         3.88238
           11135         62.7226         62.8743     727.900E-03         2.95401
           11136         63.2849         63.4767     969.311E-03         3.47726
           11137         62.0970         62.2301     613.818E-03         2.66270
           11138         62.6484         62.8178     817.327E-03         3.13140
           11139         61.5222         61.6376     518.657E-03         2.41445
           11140         62.0607         62.2087     690.999E-03         2.83573
           11141         60.9921         61.0907     438.410E-03         2.20280
           11142         61.5171         61.6445     584.853E-03         2.58285
           11143         60.5014         60.5840     370.053E-03         2.02252
           11144         61.0126         61.1206     494.757E-03         2.36668
           11145         60.0450         60.1127     311.270E-03         1.86934
           11146         60.5428         60.6324     417.555E-03         2.18223
           11147         59.6186         59.6721     260.270E-03         1.73974
           11148         60.1036         60.1757     350.808E-03         2.02538
           11149         59.2181         59.2582     215.654E-03         1.63080
           11150         59.6911         59.7468     292.616E-03         1.89270
           11151         58.8399         58.8674     176.315E-03         1.54010
           11152         59.3019         59.3420     241.478E-03         1.78134
           11153         58.4807         58.4961     141.371E-03         1.46561
           11154         58.9328         58.9580     196.202E-03         1.68887
           11155         58.1375         58.1415     110.113E-03         1.40560
           11156         58.5808         58.5919     155.830E-03         1.61329
           11157         57.8077         57.8007     81.9654E-03         1.35862
           11158         58.2433         58.2409     119.590E-03         1.55286
           11159         57.4886         57.4711     56.4592E-03         1.32344
           11160         57.9178         57.9024     86.8490E-03         1.50612
           11161         57.1782         57.1505     33.2084E-03         1.29898
           11162         57.6020         57.5741     57.0911E-03         1.47181
           11163         56.8742         56.8366     11.8936E-03         1.28434
           11164         57.2940         57.2539     29.8889E-03         1.44885
           11165         56.5748         56.5276    -7.75085E-03         1.27873
           11166         56.9917         56.9398     4.88758E-03         1.43629
           11167         56.2783         56.2215    -25.9468E-03         1.28144
           11168         56.6935         56.6300    -18.2086E-03         1.43333
           11169         55.9830         55.9168    -42.8806E-03         1.29189
           11170         56.3976         56.3226    -39.6478E-03         1.43925
           11171         55.6873         55.6117    -58.7092E-03         1.30955
           11172         56.1026         56.0162    -59.6387E-03         1.45344
           11173         55.3899         55.3049    -73.5652E-03         1.33395
           11174         55.8070         55.7093    -78.3576E-03         1.47534
           11175         55.0895         54.9949    -87.5608E-03         1.36468
           11176         55.5096         55.4004    -95.9533E-03         1.50447
           11177         54.7847         54.6805    -100.791E-03         1.40137
           11178         55.2091         55.0882    -112.552E-03         1.54039
           11179         54.4746         54.3604    -113.336E-03         1.44370
           11180         54.9043         54.7716    -128.261E-03         1.58272
           11181         54.1579         54.0335    -125.264E-03         1.49137
           11182         54.5941         54.4493    -143.171E-03         1.63112
           11183         53.8336         53.6987    -136.632E-03         1.54410
           11184         54.2776         54.1203    -157.357E-03         1.68526
           11185         53.5009         53.3550    -147.487E-03         1.60166
           11186         53.9538         53.7835    -170.884E-03         1.74486
           11187         53.1587         53.0014    -157.869E-03         1.66382
           11188         53.6218         53.4380    -183.805E-03         1.80966
           11189         52.8062         52.6370    -167.811E-03         1.73037
           11190         53.2807         53.0828    -196.163E-03         1.87941
           11191         52.4427         52.2609    -177.337E-03         1.80111
           11192         52.9297         52.7171    -207.994E-03         1.95388
           11193         52.0673         51.8723    -186.466E-03         1.87585
           11194         52.5681         52.3401    -219.325E-03         2.03286
           11195         51.6793         51.4705    -195.214E-03         1.95441
           11196         52.1953         51.9509    -230.177E-03         2.11614
           11197         51.2782         51.0546    -203.587E-03         2.03662
           11198         51.8104         51.5489    -240.562E-03         2.20353
           11199         50.8632         50.6241    -211.590E-03         2.12230
           11200         51.4130         51.1334    -250.490E-03         2.29481
           11201         50.4338         50.1781    -219.223E-03         2.21128
           11202         51.0024         50.7036    -259.961E-03         2.38982
           11203         49.9894         49.7163    -226.479E-03         2.30339
           11204         50.5781         50.2591    -268.972E-03         2.48834
           11205         49.5295         49.2379    -233.349E-03         2.39846
           11206         50.1397         49.7992    -277.514E-03         2.59019
           11207         49.0537         48.7425    -239.817E-03         2.49630
           11208         49.6866         49.3234    -285.571E-03         2.69516
           11209         48.5616         48.2295    -245.867E-03         2.59673
           11210         49.2185         48.8313    -293.125E-03         2.80305
           11211         48.0528         47.6986    -251.473E-03         2.69955
           11212         48.7351         48.3223    -300.149E-03         2.91365
           11213         47.5270         47.1493    -256.609E-03         2.80455
           11214         48.2360         47.7962    -306.614E-03         3.02673
           11215         46.9839         46.5813    -261.242E-03         2.91152
           11216         47.7209         47.2526    -312.481E-03         3.14205
           11217         46.4233         45.9944    -265.334E-03         3.02021
           11218         47.1897         46.6911    -317.709E-03         3.25936
           11219         45.8450         45.3882    -268.842E-03         3.13038
           11220         46.6421         46.1116    -322.249E-03         3.37839
           11221         45.2489         44.7627    -271.718E-03         3.24177
           11222         46.0780         45.5138    -326.046E-03         3.49886
           11223         44.6349         44.1176    -273.909E-03         3.35406
           11224         45.4973         44.8977    -329.038E-03         3.62044
           11225         44.0030         43.4530    -275.354E-03         3.46697
           11226         44.9001         44.2632    -331.158E-03         3.74281
           11227         43.3533         42.7689    -275.988E-03         3.58013
           11228         44.2864         43.6102    -332.329E-03         3.86560
           11229         42.6859         42.0653    -275.737E-03         3.69319
           11230         43.6561         42.9389    -332.466E-03         3.98842
           11231         42.0009         41.3425    -274.520E-03         3.80573
           11232         43.0095         42.2494    -331.477E-03         4.11084
           11233         41.2986         40.6006    -272.250E-03         3.91734
           11234         42.3468         41.5419    -329.261E-03         4.23242
           11235         40.5793         39.8401    -268.829E-03         4.02752
           11236         41.6682         40.8167    -325.705E-03         4.35263
           11237         39.8433         39.0613    -264.152E-03         4.13578
           11238         40.9740         40.0742    -320.689E-03         4.47096
           11239         39.0911         38.2649    -258.103E-03         4.24155
           11240         40.2645         39.3150    -314.078E-03         4.58679
           11241         38.3233         37.4514    -250.557E-03         4.34422
           11242         39.5403         38.5396    -305.730E-03         4.69951
           11243         37.5403         36.6217    -241.377E-03         4.44313
           11244         38.8017         37.7488    -295.485E-03         4.80841
           11245         36.7428         35.7766    -230.415E-03         4.53757
           11246         38.0493         36.9432    -283.173E-03         4.91275
           11247         35.9316         34.9172    -217.507E-03         4.62677
           11248         37.2837         36.1240    -268.609E-03         5.01171
           11249         35.1073         34.0447    -202.481E-03         4.70988
           11250         36.5054         35.2921    -251.592E-03         5.10442
           11251         34.2710         33.1603    -185.147E-03         4.78599
           11252         35.7151         34.4488    -231.905E-03         5.18992
           11253         33.4233         32.2656    -165.299E-03         4.85412
           11254         34.9136         33.5954    -209.314E-03         5.26720
           11255         32.5654         31.3622    -142.719E-03         4.91320
           11256         34.1015         32.7335    -183.567E-03         5.33513
           11257         31.6981         30.4520    -117.170E-03         4.96209
           11258         33.2796         31.8646    -154.394E-03         5.39253
           11259         30.8225         29.5368    -88.3990E-03         4.99956
           11260         32.4486         30.9905    -121.506E-03         5.43812
           11261         29.9397         28.6190    -56.1364E-03         5.02426
           11262         31.6093         30.1133    -84.5962E-03         5.47053
           11263         29.0507         27.7008    -20.0972E-03         5.03480
           11264         30.7624         29.2351    -43.3407E-03         5.48828
           11265         28.1565         26.7849     20.0167E-03         5.02964
           11266         29.9087         28.3583     2.60040E-03         5.48982
           11267         27.2584         25.8741     64.5144E-03         5.00719
           11268         29.0489         27.4851     53.5779E-03         5.47347
           11269         26.3574         24.9712     113.710E-03         4.96573
           11270         28.1838         26.6185     109.949E-03         5.43751
           11271         25.4547         24.0795     167.915E-03         4.90349
           11272         27.3141         25.7610     172.067E-03         5.38008
           11273         24.5514         23.2022     227.422E-03         4.81861
           11274         26.4406         24.9156     240.269E-03         5.29930
           11275         23.6490         22.3427     292.488E-03         4.70920
           11276         25.5642         24.0854     314.852E-03         5.19322
           11277         22.7490         21.5047     363.303E-03         4.57335
           11278         24.6860         23.2734     396.041E-03         5.05988
           11279         21.8531         20.6917     439.940E-03         4.40920
           11280         23.8073         22.4829     483.945E-03         4.89737
           11281         20.9637         19.9073     522.291E-03         4.21500
           11282         22.9299         21.7170     578.483E-03         4.70390
           11283         20.0836         19.1552     609.952E-03         3.98926
           11284         22.0561         20.9788     679.275E-03         4.47787
           11285         19.2169         18.4386     702.066E-03         3.73086
           11286         21.1894         20.2712     785.488E-03         4.21807
           11287         18.3688         17.7609     797.064E-03         3.43933
           11288         20.3343         19.5970     895.587E-03         3.92380
           11289         17.5466         17.1247     892.271E-03         3.11511
           11290         19.4972         18.9590         1.00697         3.59523
           11291         16.7600         16.5328     983.278E-03         2.76005
           11292         18.6870         18.3594         1.11538         3.23363
           11293         16.0217         15.9873         1.06295         2.37789
           11294         17.9153         17.8008         1.21409         2.84186
           11295         15.3488         15.4912         1.11984         1.97489
           11296         17.1982         17.2862         1.29253         2.42470
           11297         14.7635         15.0485         1.13572         1.56034
           11298         16.5565         16.8200         1.33443         1.98908
           11299         14.2957         14.6673         1.08213         1.14608
           11300         16.0179         16.4097         1.31532         1.54364
           11301         13.9855         14.3618     916.944E-03     743.927E-03
           11302         15.6185         16.0677         1.20007         1.09706
           11303         13.8858         14.1544     583.835E-03     360.989E-03
           11304         15.4053         15.8126     941.470E-03     655.065E-03
           11305         14.0718         14.0770     10.3969E-03    -1.17885E-03
           11306         15.4398         15.6697     480.381E-03     218.317E-03
           11307         68.4025         69.9375         18.4762         15.6891
           11308         66.3929         68.4157         19.4409         15.0492
           11309         66.8281         69.0585         20.7862         15.2786
           11310         69.7830         70.7786         15.5780         15.4916
           11311         67.7508         69.2107         17.1228         15.1870
           11312         70.6302         71.3099         12.6382         14.6631
           11313         68.8491         69.8929         14.5039         14.8160
           11314         70.8780         71.4067         10.0326         13.4228
           11315         69.5124         70.2975         11.9356         13.9859
           11316         70.6395         71.1048         7.90259         12.0210
           11317         69.7165         70.3590         9.65589         12.8601
           11318         70.0742         70.5118         6.23458         10.6336
           11319         69.5391         70.1056         7.75735         11.6124
           11320         69.3200         69.7400         4.95201         9.35285
           11321         69.0910         69.6130         6.23326         10.3707
           11322         68.4765         68.8784         3.96937         8.21455
           11323         68.4741         68.9634         5.03160         9.20919
           11324         67.6073         67.9880         3.21328         7.22310
           11325         67.7665         68.2260         4.08959         8.16108
           11326         66.7507         67.1069         2.62636         6.36838
           11327         67.0223         67.4513         3.34977         7.23483
           11328         65.9280         66.2575         2.16576         5.63493
           11329         66.2759         66.6734         2.76511         6.42585
           11330         65.1501         65.4517         1.79997         5.00648
           11331         65.5485         65.9134         2.29907         5.72371
           11332         64.4213         64.6945         1.50598         4.46791
           11333         64.8518         65.1839         1.92390         5.11619
           11334         63.7418         63.9870         1.26689         4.00595
           11335         64.1918         64.4912         1.61874         4.59124
           11336         63.1099         63.3278         1.07023         3.60931
           11337         63.5704         63.8380         1.36795         4.13783
           11338         62.5228         62.7144     906.716E-03         3.26849
           11339         62.9876         63.2243         1.15974         3.74628
           11340         61.9768         62.1432     769.364E-03         2.97558
           11341         62.4417         62.6488     985.188E-03         3.40825
           11342         61.4682         61.6107     652.865E-03         2.72399
           11343         61.9305         62.1093     837.466E-03         3.11666
           11344         60.9932         61.1130     553.146E-03         2.50823
           11345         61.4512         61.6030     711.331E-03         2.86549
           11346         60.5484         60.6466     467.050E-03         2.32373
           11347         61.0009         61.1272     602.707E-03         2.64970
           11348         60.1301         60.2080     392.106E-03         2.16666
           11349         60.5769         60.6788     508.403E-03         2.46498
           11350         59.7353         59.7939     326.361E-03         2.03379
           11351         60.1761         60.2550     425.898E-03         2.30773
           11352         59.3609         59.4012     268.261E-03         1.92242
           11353         59.7960         59.8530     353.184E-03         2.17486
           11354         59.0043         59.0270     216.558E-03         1.83023
           11355         59.4339         59.4701     288.651E-03         2.06376
           11356         58.6627         58.6688     170.240E-03         1.75527
           11357         59.0875         59.1039     230.996E-03         1.97220
           11358         58.3339         58.3240     128.484E-03         1.69586
           11359         58.7546         58.7519     179.159E-03         1.89826
           11360         58.0157         57.9904     90.6130E-03         1.65056
           11361         58.4330         58.4121     132.269E-03         1.84029
           11362         57.7060         57.6659     56.0702E-03         1.61812
           11363         58.1208         58.0822     89.6111E-03         1.79686
           11364         57.4030         57.3485     24.3916E-03         1.59748
           11365         57.8162         57.7605     50.5895E-03         1.76675
           11366         57.1050         57.0363    -4.80963E-03         1.58770
           11367         57.5175         57.4450     14.7089E-03         1.74888
           11368         56.8103         56.7278    -31.8575E-03         1.58795
           11369         57.2230         57.1342    -18.4456E-03         1.74231
           11370         56.5175         56.4212    -57.0248E-03         1.59752
           11371         56.9314         56.8264    -49.2231E-03         1.74622
           11372         56.2252         56.1151    -80.5422E-03         1.61579
           11373         56.6412         56.5201    -77.9181E-03         1.75987
           11374         55.9319         55.8082    -102.604E-03         1.64218
           11375         56.3512         56.2141    -104.780E-03         1.78263
           11376         55.6367         55.4991    -123.376E-03         1.67621
           11377         56.0601         55.9069    -130.019E-03         1.81393
           11378         55.3382         55.1865    -142.999E-03         1.71743
           11379         55.7669         55.5973    -153.816E-03         1.85324
           11380         55.0354         54.8694    -161.591E-03         1.76543
           11381         55.4704         55.2843    -176.322E-03         1.90013
           11382         54.7273         54.5466    -179.252E-03         1.81986
           11383         55.1697         54.9667    -197.665E-03         1.95417
           11384         54.4130         54.2171    -196.067E-03         1.88039
           11385         54.8639         54.6434    -217.956E-03         2.01498
           11386         54.0915         53.8800    -212.107E-03         1.94671
           11387         54.5520         54.3136    -237.285E-03         2.08223
           11388         53.7621         53.5343    -227.431E-03         2.01855
           11389         54.2333         53.9763    -255.728E-03         2.15559
           11390         53.4240         53.1791    -242.085E-03         2.09564
           11391         53.9069         53.6306    -273.348E-03         2.23477
           11392         53.0764         52.8137    -256.109E-03         2.17774
           11393         53.5722         53.2757    -290.195E-03         2.31950
           11394         52.7186         52.4372    -269.530E-03         2.26463
           11395         53.2285         52.9108    -306.309E-03         2.40951
           11396         52.3501         52.0490    -282.370E-03         2.35606
           11397         52.8751         52.5353    -321.719E-03         2.50455
           11398         51.9701         51.6483    -294.641E-03         2.45184
           11399         52.5115         52.1484    -336.445E-03         2.60437
           11400         51.5781         51.2345    -306.350E-03         2.55173
           11401         52.1371         51.7494    -350.498E-03         2.70875
           11402         51.1736         50.8070    -317.496E-03         2.65554
           11403         51.7514         51.3379    -363.882E-03         2.81745
           11404         50.7562         50.3653    -328.070E-03         2.76303
           11405         51.3539         50.9132    -376.590E-03         2.93023
           11406         50.3254         49.9087    -338.059E-03         2.87401
           11407         50.9443         50.4748    -388.612E-03         3.04685
           11408         49.8808         49.4369    -347.442E-03         2.98824
           11409         50.5220         50.0222    -399.925E-03         3.16708
           11410         49.4220         48.9494    -356.191E-03         3.10548
           11411         50.0869         49.5550    -410.503E-03         3.29066
           11412         48.9488         48.4458    -364.272E-03         3.22551
           11413         49.6385         49.0728    -420.309E-03         3.41734
           11414         48.4608         47.9257    -371.646E-03         3.34806
           11415         49.1766         48.5753    -429.300E-03         3.54684
           11416         47.9579         47.3890    -378.264E-03         3.47287
           11417         48.7010         48.0621    -437.425E-03         3.67888
           11418         47.4399         46.8352    -384.073E-03         3.59965
           11419         48.2114         47.5331    -444.623E-03         3.81315
           11420         46.9066         46.2643    -389.009E-03         3.72809
           11421         47.7079         46.9879    -450.828E-03         3.94934
           11422         46.3579         45.6761    -393.004E-03         3.85786
           11423         47.1902         46.4265    -455.961E-03         4.08709
           11424         45.7939         45.0705    -395.978E-03         3.98862
           11425         46.6583         45.8488    -459.937E-03         4.22604
           11426         45.2144         44.4475    -397.846E-03         4.11998
           11427         46.1121         45.2548    -462.660E-03         4.36579
           11428         44.6196         43.8071    -398.511E-03         4.25153
           11429         45.5517         44.6444    -464.022E-03         4.50592
           11430         44.0095         43.1495    -397.868E-03         4.38284
           11431         44.9772         44.0177    -463.906E-03         4.64595
           11432         43.3843         42.4749    -395.801E-03         4.51341
           11433         44.3887         43.3751    -462.184E-03         4.78540
           11434         42.7442         41.7835    -392.182E-03         4.64273
           11435         43.7863         42.7165    -458.714E-03         4.92372
           11436         42.0894         41.0757    -386.873E-03         4.77024
           11437         43.1701         42.0425    -453.341E-03         5.06033
           11438         41.4202         40.3519    -379.721E-03         4.89532
           11439         42.5404         41.3533    -445.896E-03         5.19459
           11440         40.7370         39.6127    -370.563E-03         5.01732
           11441         41.8975         40.6495    -436.196E-03         5.32584
           11442         40.0400         38.8587    -359.218E-03         5.13552
           11443         41.2416         39.9317    -424.041E-03         5.45333
           11444         39.3298         38.0906    -345.493E-03         5.24915
           11445         40.5730         39.2005    -409.215E-03         5.57626
           11446         38.6067         37.3093    -329.176E-03         5.35737
           11447         39.8921         38.4566    -391.484E-03         5.69377
           11448         37.8712         36.5158    -310.040E-03         5.45928
           11449         39.1991         37.7010    -370.594E-03         5.80494
           11450         37.1239         35.7111    -287.838E-03         5.55389
           11451         38.4945         36.9347    -346.273E-03         5.90875
           11452         36.3652         34.8965    -262.307E-03         5.64017
           11453         37.7785         36.1588    -318.226E-03         6.00414
           11454         35.5956         34.0734    -233.161E-03         5.71697
           11455         37.0516         35.3745    -286.140E-03         6.08995
           11456         34.8157         33.2432    -200.096E-03         5.78307
           11457         36.3140         34.5831    -249.676E-03         6.16492
           11458         34.0260         32.4075    -162.787E-03         5.83717
           11459         35.5660         33.7861    -208.475E-03         6.22772
           11460         33.2269         31.5682    -120.889E-03         5.87787
           11461         34.8080         32.9851    -162.157E-03         6.27693
           11462         32.4191         30.7271    -74.0397E-03         5.90367
           11463         34.0401         32.1820    -110.319E-03         6.31102
           11464         31.6029         29.8864    -21.8571E-03         5.91298
           11465         33.2626         31.3784    -52.5435E-03         6.32839
           11466         30.7788         29.0483     36.0505E-03         5.90413
           11467         32.4757         30.5765     11.6045E-03         6.32732
           11468         29.9472         28.2151     100.083E-03         5.87534
           11469         31.6795         29.7782     82.5652E-03         6.30602
           11470         29.1086         27.3893     170.637E-03         5.82474
           11471         30.8741         28.9860     160.777E-03         6.26261
           11472         28.2635         26.5736     248.090E-03         5.75043
           11473         30.0598         28.2019     246.663E-03         6.19514
           11474         27.4123         25.7705     332.785E-03         5.65043
           11475         29.2367         27.4285     340.603E-03         6.10162
           11476         26.5559         24.9830     424.990E-03         5.52276
           11477         28.4052         26.6681     442.913E-03         5.98004
           11478         25.6951         24.2137     524.858E-03         5.36545
           11479         27.5659         25.9233     553.786E-03         5.82840
           11480         24.8312         23.4657     632.359E-03         5.17663
           11481         26.7197         25.1965     673.238E-03         5.64479
           11482         23.9664         22.7415     747.180E-03         4.95463
           11483         25.8682         24.4902     801.004E-03         5.42745
           11484         23.1032         22.0439     868.576E-03         4.69803
           11485         25.0136         23.8067     936.404E-03         5.17488
           11486         22.2457         21.3756     995.160E-03         4.40591
           11487         24.1593         23.1485         1.07814         4.88598
           11488         21.3994         20.7389         1.12458         4.07797
           11489         23.3102         22.5176         1.22401         4.56018
           11490         20.5720         20.1363         1.25305         3.71485
           11491         22.4730         21.9164         1.37047         4.19769
           11492         19.7741         19.5702         1.37465         3.31840
           11493         21.6572         21.3474         1.51207         3.79970
           11494         19.0198         19.0436         1.48030         2.89198
           11495         20.8755         20.8134         1.64054         3.36857
           11496         18.3276         18.5605         1.55630         2.44063
           11497         20.1449         20.3184         1.74368         2.90787
           11498         17.7220         18.1273         1.58241         1.97083
           11499         19.4875         19.8683         1.80386         2.42222
           11500         17.2349         17.7540         1.52968         1.48951
           11501         18.9321         19.4720         1.79635         1.91640
           11502         16.9072         17.4560         1.35865         1.00182
           11503         18.5151         19.1427         1.68788         1.39389
           11504         16.7916         17.2548         1.01905     508.409E-03
           11505         18.2831         18.8986         1.43585     854.534E-03
           11506         16.9608         17.1796     446.468E-03     1.44712E-03
           11507         18.2962         18.7633     988.097E-03     292.203E-03
           11508         66.1241         67.9714         18.3223         14.8546
           11509         64.5234         66.7767         19.1115         14.3189
           11510         64.8226         67.2309         20.2166         14.5194
           11511         67.3368         68.7099         15.9855         14.7875
           11512         65.6885         67.4666         17.1874         14.4614
           11513         68.2406         69.2823         13.5240         14.2690
           11514         66.7082         68.1010         15.0047         14.2471
           11515         68.7422         69.5795         11.2042         13.3944
           11516         67.4523         68.5684         12.7893         13.6816
           11517         68.8593         69.5777         9.17657         12.3128
           11518         67.8695         68.8020         10.7214         12.8485
           11519         68.6697         69.3168         7.48561         11.1587
           11520         67.9783         68.7917         8.90208         11.8588
           11521         68.2645         68.8625         6.11232         10.0257
           11522         67.8358         68.5681         7.36282         10.8127
           11523         67.7228         68.2804         5.01113         8.96677
           11524         67.5092         68.1806         6.09078         9.78222
           11525         67.1048         67.6245         4.13139         8.00621
           11526         67.0596         67.6794         5.05239         8.81098
           11527         66.4528         66.9346         3.42721         7.15041
           11528         66.5357         67.1080         4.20860         7.92105
           11529         65.7949         66.2384         2.86052         6.39614
           11530         65.9732         66.4998         3.52255         7.12013
           11531         65.1487         65.5538         2.40114         5.73555
           11532         65.3972         65.8788         2.96262         6.40754
           11533         64.5248         64.8918         2.02562         5.15913
           11534         64.8241         65.2617         2.50293         5.77816
           11535         63.9290         64.2586         1.71592         4.65722
           11536         64.2646         64.6591         2.12289         5.22487
           11537         63.3638         63.6571         1.45821         4.22080
           11538         63.7250         64.0777         1.80627         4.74001
           11539         62.8298         63.0881         1.24184         3.84173
           11540         63.2085         63.5209         1.54039         4.31611
           11541         62.3262         62.5510         1.05860         3.51289
           11542         62.7166         62.9903         1.31533         3.94626
           11543         61.8515         62.0443     902.116E-03         3.22810
           11544         62.2493         62.4860         1.12332         3.62425
           11545         61.4036         61.5661     767.396E-03         2.98207
           11546         61.8059         62.0073     958.243E-03         3.34462
           11547         60.9805         61.1141     650.511E-03         2.77024
           11548         61.3850         61.5529     815.254E-03         3.10257
           11549         60.5797         60.6859     548.347E-03         2.58873
           11550         60.9851         61.1211     690.502E-03         2.89396
           11551         60.1991         60.2792     458.411E-03         2.43421
           11552         60.6044         60.7100     580.901E-03         2.71520
           11553         59.8363         59.8916     378.702E-03         2.30383
           11554         60.2410         60.3177     483.965E-03         2.56316
           11555         59.4892         59.5208     307.595E-03         2.19512
           11556         59.8931         59.9422     397.677E-03         2.43517
           11557         59.1558         59.1647     243.767E-03         2.10598
           11558         59.5588         59.5816     320.392E-03         2.32889
           11559         58.8340         58.8212     186.130E-03         2.03459
           11560         59.2365         59.2340     250.761E-03         2.24230
           11561         58.5221         58.4884     133.787E-03         1.97935
           11562         58.9243         58.8975     187.668E-03         2.17364
           11563         58.2184         58.1644     85.9948E-03         1.93890
           11564         58.6208         58.5705     130.189E-03         2.12138
           11565         57.9211         57.8474     42.1315E-03         1.91203
           11566         58.3244         58.2513     77.5526E-03         2.08417
           11567         57.6288         57.5359     1.67693E-03         1.89769
           11568         58.0336         57.9383     29.1135E-03         2.06084
           11569         57.3402         57.2282    -35.8066E-03         1.89497
           11570         57.7471         57.6299    -15.6715E-03         2.05034
           11571         57.0537         56.9230    -70.6887E-03         1.90303
           11572         57.4636         57.3249    -57.2611E-03         2.05177
           11573         56.7683         56.6189    -103.283E-03         1.92116
           11574         57.1818         57.0219    -96.0433E-03         2.06432
           11575         56.4826         56.3146    -133.854E-03         1.94873
           11576         56.9008         56.7195    -132.348E-03         2.08726
           11577         56.1957         56.0089    -162.628E-03         1.98514
           11578         56.6193         56.4167    -166.454E-03         2.11994
           11579         55.9065         55.7007    -189.796E-03         2.02990
           11580         56.3364         56.1122    -198.601E-03         2.16179
           11581         55.6139         55.3888    -215.522E-03         2.08252
           11582         56.0511         55.8051    -228.990E-03         2.21229
           11583         55.3172         55.0722    -239.943E-03         2.14260
           11584         55.7626         55.4943    -257.794E-03         2.27095
           11585         55.0155         54.7501    -263.176E-03         2.20975
           11586         55.4699         55.1789    -285.158E-03         2.33736
           11587         54.7078         54.4214    -285.318E-03         2.28360
           11588         55.1724         54.8579    -311.204E-03         2.41111
           11589         54.3936         54.0854    -306.449E-03         2.36383
           11590         54.8693         54.5305    -336.034E-03         2.49184
           11591         54.0720         53.7412    -326.637E-03         2.45014
           11592         54.5599         54.1960    -359.733E-03         2.57920
           11593         53.7425         53.3880    -345.931E-03         2.54223
           11594         54.2436         53.8535    -382.368E-03         2.67287
           11595         53.4043         53.0251    -364.374E-03         2.63982
           11596         53.9197         53.5023    -403.992E-03         2.77254
           11597         53.0570         52.6519    -381.994E-03         2.74266
           11598         53.5876         53.1417    -424.645E-03         2.87793
           11599         52.7000         52.2677    -398.809E-03         2.85047
           11600         53.2470         52.7712    -444.354E-03         2.98874
           11601         52.3328         51.8719    -414.827E-03         2.96300
           11602         52.8972         52.3901    -463.134E-03         3.10471
           11603         51.9549         51.4639    -430.048E-03         3.08000
           11604         52.5379         51.9978    -480.989E-03         3.22554
           11605         51.5659         51.0433    -444.461E-03         3.20121
           11606         52.1686         51.5940    -497.914E-03         3.35098
           11607         51.1655         50.6095    -458.047E-03         3.32638
           11608         51.7890         51.1780    -513.892E-03         3.48074
           11609         50.7532         50.1621    -470.778E-03         3.45524
           11610         51.3986         50.7494    -528.895E-03         3.61453
           11611         50.3289         49.7008    -482.617E-03         3.58750
           11612         50.9973         50.3079    -542.888E-03         3.75207
           11613         49.8922         49.2252    -493.518E-03         3.72289
           11614         50.5848         49.8531    -555.821E-03         3.89305
           11615         49.4429         48.7349    -503.425E-03         3.86111
           11616         50.1608         49.3848    -567.638E-03         4.03716
           11617         48.9808         48.2298    -512.276E-03         4.00183
           11618         49.7252         48.9025    -578.272E-03         4.18406
           11619         48.5058         47.7095    -519.994E-03         4.14473
           11620         49.2777         48.4062    -587.641E-03         4.33341
           11621         48.0178         47.1741    -526.497E-03         4.28943
           11622         48.8182         47.8957    -595.658E-03         4.48482
           11623         47.5165         46.6233    -531.689E-03         4.43557
           11624         48.3468         47.3708    -602.219E-03         4.63791
           11625         47.0022         46.0570    -535.465E-03         4.58272
           11626         47.8632         46.8315    -607.211E-03         4.79224
           11627         46.4746         45.4754    -537.708E-03         4.73044
           11628         47.3675         46.2777    -610.507E-03         4.94736
           11629         45.9339         44.8785    -538.287E-03         4.87826
           11630         46.8597         45.7096    -611.967E-03         5.10279
           11631         45.3801         44.2664    -537.061E-03         5.02567
           11632         46.3397         45.1272    -611.435E-03         5.25799
           11633         44.8133         43.6393    -533.873E-03         5.17212
           11634         45.8077         44.5307    -608.743E-03         5.41239
           11635         44.2336         42.9976    -528.553E-03         5.31700
           11636         45.2637         43.9204    -603.704E-03         5.56539
           11637         43.6411         42.3414    -520.913E-03         5.45967
           11638         44.7077         43.2965    -596.117E-03         5.71633
           11639         43.0361         41.6714    -510.752E-03         5.59943
           11640         44.1400         42.6595    -585.760E-03         5.86450
           11641         42.4188         40.9879    -497.849E-03         5.73554
           11642         43.5606         42.0098    -572.396E-03         6.00913
           11643         41.7893         40.2917    -481.965E-03         5.86718
           11644         42.9695         41.3479    -555.763E-03         6.14939
           11645         41.1478         39.5833    -462.843E-03         5.99347
           11646         42.3671         40.6745    -535.583E-03         6.28439
           11647         40.4946         38.8636    -440.204E-03         6.11348
           11648         41.7532         39.9903    -511.553E-03         6.41318
           11649         39.8298         38.1336    -413.748E-03         6.22619
           11650         41.1282         39.2962    -483.347E-03         6.53473
           11651         39.1538         37.3941    -383.152E-03         6.33050
           11652         40.4919         38.5929    -450.616E-03         6.64794
           11653         38.4666         36.6463    -348.070E-03         6.42524
           11654         39.8445         37.8816    -412.984E-03         6.75160
           11655         37.7684         35.8914    -308.133E-03         6.50916
           11656         39.1859         37.1632    -370.052E-03         6.84446
           11657         37.0595         35.1308    -262.948E-03         6.58091
           11658         38.5162         36.4391    -321.394E-03         6.92516
           11659         36.3397         34.3658    -212.099E-03         6.63905
           11660         37.8352         35.7105    -266.561E-03         6.99224
           11661         35.6093         33.5981    -155.146E-03         6.68205
           11662         37.1429         34.9788    -205.077E-03         7.04418
           11663         34.8681         32.8293    -91.6328E-03         6.70829
           11664         36.4389         34.2455    -136.450E-03         7.07933
           11665         34.1162         32.0612    -21.0848E-03         6.71605
           11666         35.7231         33.5122    -60.1656E-03         7.09597
           11667         33.3535         31.2957     56.9789E-03         6.70354
           11668         34.9952         32.7805     24.2966E-03         7.09229
           11669         32.5799         30.5348     143.040E-03         6.66886
           11670         34.2549         32.0523     117.458E-03         7.06641
           11671         31.7952         29.7805     237.563E-03         6.61007
           11672         33.5019         31.3293     219.826E-03         7.01636
           11673         30.9996         29.0349     340.978E-03         6.52515
           11674         32.7358         30.6135     331.874E-03         6.94012
           11675         30.1930         28.3003     453.646E-03         6.41208
           11676         31.9566         29.9068     454.010E-03         6.83566
           11677         29.3758         27.5789     575.821E-03         6.26883
           11678         31.1642         29.2111     586.537E-03         6.70092
           11679         28.5486         26.8728     707.582E-03         6.09344
           11680         30.3589         28.5284     729.588E-03         6.53392
           11681         27.7125         26.1843     848.752E-03         5.88405
           11682         29.5416         27.8607     883.054E-03         6.33276
           11683         26.8692         25.5156     998.771E-03         5.63905
           11684         28.7136         27.2098         1.04646         6.09572
           11685         26.0217         24.8688         1.15652         5.35709
           11686         27.8771         26.5778         1.21880         5.82133
           11687         25.1739         24.2460         1.32007         5.03732
           11688         27.0357         25.9664         1.39833         5.50851
           11689         24.3319         23.6493         1.48632         4.67945
           11690         26.1946         25.3778         1.58224         5.15666
           11691         23.5036         23.0811         1.65054         4.28399
           11692         25.3608         24.8141         1.76620         4.76581
           11693         22.7004         22.5440         1.80561         3.85237
           11694         24.5443         24.2779         1.94385         4.33668
           11695         21.9371         22.0418         1.94117         3.38696
           11696         23.7584         23.7727         2.10597         3.87075
           11697         21.2331         21.5795         2.04239         2.89102
           11698         23.0204         23.3032         2.23957         3.37002
           11699         20.6136         21.1646         2.08860         2.36804
           11700         22.3527         22.8761         2.32680         2.83667
           11701         20.1106         20.8081         2.05195         1.82071
           11702         21.7839         22.5010         2.34388         2.27208
           11703         19.7645         20.5252         1.89648         1.24902
           11704         21.3497         22.1909         2.26026         1.67549
           11705         19.6267         20.3358         1.57791     648.116E-03
           11706         21.0952         21.9628         2.03829         1.04211
           11707         19.7660         20.2660         1.04120     4.30578E-03
           11708         21.0776         21.8375         1.63344     361.037E-03
           11709         64.3361         66.4573         18.1653         14.1398
           11710         63.0209         65.4900         18.8411         13.6823
           11711         63.2279         65.8147         19.7792         13.8653
           11712         65.4070         67.1118         16.2140         14.1342
           11713         64.0392         66.1004         17.1937         13.8161
           11714         66.2931         67.6734         14.1211         13.7999
           11715         64.9753         66.6841         15.3305         13.6907
           11716         66.9089         68.0577         12.0707         13.1750
           11717         65.7333         67.1640         13.4011         13.2959
           11718         67.2354         68.2262         10.1911         12.3454
           11719         66.2600         67.4838         11.5384         12.6734
           11720         67.3023         68.1837         8.54590         11.4053
           11721         66.5472         67.6200         9.83306         11.8923
           11722         67.1616         67.9622         7.14837         10.4328
           11723         66.6188         67.5792         8.33001         11.0251
           11724         66.8688         67.6040         5.98220         9.48264
           11725         66.5147         67.3867         7.03880         10.1327
           11726         66.4727         67.1502         5.01802         8.58780
           11727         66.2778         67.0754         5.94721         9.25890
           11728         66.0122         66.6357         4.22341         7.76513
           11729         65.9470         66.6782         5.03247         8.43137
           11730         65.5163         66.0877         3.56804         7.02078
           11731         65.5545         66.2237         4.26871         7.66534
           11732         65.0055         65.5262         3.02566         6.35441
           11733         65.1248         65.7352         3.63100         6.96729
           11734         64.4941         64.9655         2.57450         5.76210
           11735         64.6764         65.2301         3.09722         6.33806
           11736         63.9914         64.4148         2.19693         5.23824
           11737         64.2221         64.7211         2.64857         5.77525
           11738         63.5030         63.8802         1.87881         4.77663
           11739         63.7709         64.2172         2.26951         5.27469
           11740         63.0325         63.3651         1.60890         4.37107
           11741         63.3286         63.7243         1.94737         4.83146
           11742         62.5814         62.8714         1.37826         4.01574
           11743         62.8990         63.2462         1.67188         4.44045
           11744         62.1503         62.3995         1.17980         3.70531
           11745         62.4841         62.7848         1.43479         4.09672
           11746         61.7387         61.9491         1.00782         3.43502
           11747         62.0847         62.3412         1.22942         3.79564
           11748         61.3459         61.5192     857.774E-03         3.20063
           11749         61.7011         61.9153         1.05038         3.53302
           11750         60.9706         61.1087     726.000E-03         2.99844
           11751         61.3328         61.5069     893.310E-03         3.30507
           11752         60.6115         60.7161     609.527E-03         2.82520
           11753         60.9792         61.1148     754.660E-03         3.10842
           11754         60.2672         60.3398     505.939E-03         2.67807
           11755         60.6391         60.7382     631.531E-03         2.94008
           11756         59.9361         59.9781     413.257E-03         2.55456
           11757         60.3115         60.3756     521.545E-03         2.79743
           11758         59.6166         59.6293     329.854E-03         2.45250
           11759         59.9951         60.0258     422.742E-03         2.67815
           11760         59.3074         59.2919     254.384E-03         2.37001
           11761         59.6887         59.6873     333.498E-03         2.58019
           11762         59.0069         58.9643     185.728E-03         2.30541
           11763         59.3911         59.3586     252.463E-03         2.50176
           11764         58.7138         58.6448     122.952E-03         2.25724
           11765         59.1009         59.0385     178.508E-03         2.44126
           11766         58.4266         58.3321     65.2727E-03         2.22423
           11767         58.8171         58.7256     110.687E-03         2.39730
           11768         58.1443         58.0247     12.0296E-03         2.20524
           11769         58.5384         58.4185     48.2019E-03         2.36863
           11770         57.8654         57.7212    -37.3342E-03         2.19926
           11771         58.2636         58.1160    -9.62126E-03         2.35415
           11772         57.5890         57.4205    -83.2914E-03         2.20540
           11773         57.9919         57.8168    -63.3539E-03         2.35288
           11774         57.3138         57.1212    -126.243E-03         2.22287
           11775         57.7220         57.5198    -113.482E-03         2.36395
           11776         57.0390         56.8221    -166.532E-03         2.25096
           11777         57.4530         57.2238    -160.419E-03         2.38657
           11778         56.7635         56.5223    -204.447E-03         2.28902
           11779         57.1841         56.9278    -204.517E-03         2.42003
           11780         56.4863         56.2207    -240.238E-03         2.33648
           11781         56.9144         56.6307    -246.078E-03         2.46371
           11782         56.2068         55.9162    -274.115E-03         2.39282
           11783         56.6430         56.3317    -285.357E-03         2.51702
           11784         55.9239         55.6079    -306.258E-03         2.45757
           11785         56.3691         56.0298    -322.573E-03         2.57944
           11786         55.6371         55.2950    -336.817E-03         2.53028
           11787         56.0921         55.7241    -357.911E-03         2.65048
           11788         55.3455         54.9767    -365.919E-03         2.61055
           11789         55.8112         55.4138    -391.527E-03         2.72971
           11790         55.0486         54.6520    -393.670E-03         2.69800
           11791         55.5258         55.0981    -423.550E-03         2.81671
           11792         54.7456         54.3203    -420.156E-03         2.79229
           11793         55.2353         54.7762    -454.088E-03         2.91110
           11794         54.4360         53.9808    -445.445E-03         2.89308
           11795         54.9391         54.4476    -483.227E-03         3.01250
           11796         54.1193         53.6329    -469.589E-03         3.00005
           11797         54.6368         54.1114    -511.037E-03         3.12058
           11798         53.7949         53.2760    -492.627E-03         3.11288
           11799         54.3277         53.7672    -537.566E-03         3.23500
           11800         53.4624         52.9095    -514.582E-03         3.23129
           11801         54.0115         53.4143    -562.851E-03         3.35543
           11802         53.1213         52.5327    -535.467E-03         3.35498
           11803         53.6877         53.0521    -586.911E-03         3.48156
           11804         52.7712         52.1453    -555.279E-03         3.48365
           11805         53.3560         52.6802    -609.752E-03         3.61308
           11806         52.4119         51.7467    -574.006E-03         3.61700
           11807         53.0159         52.2981    -631.367E-03         3.74966
           11808         52.0429         51.3366    -591.624E-03         3.75474
           11809         52.6672         51.9053    -651.734E-03         3.89100
           11810         51.6639         50.9144    -608.095E-03         3.89656
           11811         52.3096         51.5016    -670.819E-03         4.03676
           11812         51.2747         50.4799    -623.372E-03         4.04214
           11813         51.9428         51.0864    -688.575E-03         4.18663
           11814         50.8751         50.0328    -637.396E-03         4.19115
           11815         51.5666         50.6596    -704.942E-03         4.34024
           11816         50.4649         49.5728    -650.095E-03         4.34325
           11817         51.1808         50.2208    -719.847E-03         4.49724
           11818         50.0438         49.0996    -661.386E-03         4.49808
           11819         50.7852         49.7699    -733.204E-03         4.65726
           11820         49.6118         48.6132    -671.173E-03         4.65523
           11821         50.3797         49.3065    -744.912E-03         4.81990
           11822         49.1687         48.1133    -679.348E-03         4.81432
           11823         49.9641         48.8307    -754.857E-03         4.98473
           11824         48.7145         47.5998    -685.788E-03         4.97491
           11825         49.5384         48.3423    -762.911E-03         5.15132
           11826         48.2492         47.0729    -690.357E-03         5.13651
           11827         49.1024         47.8413    -768.928E-03         5.31917
           11828         47.7725         46.5324    -692.905E-03         5.29865
           11829         48.6561         47.3276    -772.749E-03         5.48779
           11830         47.2847         45.9785    -693.264E-03         5.46077
           11831         48.1995         46.8013    -774.196E-03         5.65663
           11832         46.7856         45.4114    -691.252E-03         5.62231
           11833         47.7325         46.2627    -773.074E-03         5.82509
           11834         46.2753         44.8311    -686.669E-03         5.78264
           11835         47.2551         45.7117    -769.171E-03         5.99256
           11836         45.7538         44.2381    -679.296E-03         5.94110
           11837         46.7673         45.1488    -762.253E-03         6.15834
           11838         45.2211         43.6325    -668.895E-03         6.09696
           11839         46.2691         44.5741    -752.066E-03         6.32173
           11840         44.6774         43.0150    -655.209E-03         6.24946
           11841         45.7604         43.9880    -738.336E-03         6.48192
           11842         44.1226         42.3858    -637.958E-03         6.39776
           11843         45.2412         43.3910    -720.763E-03         6.63809
           11844         43.5567         41.7457    -616.840E-03         6.54096
           11845         44.7115         42.7836    -699.025E-03         6.78934
           11846         42.9798         41.0952    -591.528E-03         6.67811
           11847         44.1712         42.1664    -672.775E-03         6.93468
           11848         42.3919         40.4351    -561.673E-03         6.80816
           11849         43.6201         41.5399    -641.639E-03         7.07308
           11850         41.7929         39.7661    -526.899E-03         6.93000
           11851         43.0582         40.9050    -605.215E-03         7.20343
           11852         41.1828         39.0892    -486.801E-03         7.04246
           11853         42.4853         40.2624    -563.074E-03         7.32453
           11854         40.5614         38.4054    -440.951E-03         7.14425
           11855         41.9010         39.6131    -514.759E-03         7.43511
           11856         39.9286         37.7158    -388.893E-03         7.23401
           11857         41.3052         38.9579    -459.783E-03         7.53380
           11858         39.2841         37.0214    -330.143E-03         7.31031
           11859         40.6974         38.2980    -397.633E-03         7.61916
           11860         38.6276         36.3236    -264.194E-03         7.37159
           11861         40.0773         37.6345    -327.767E-03         7.68966
           11862         37.9588         35.6237    -190.513E-03         7.41624
           11863         39.4443         36.9685    -249.621E-03         7.74367
           11864         37.2774         34.9231    -108.554E-03         7.44254
           11865         38.7979         36.3014    -162.610E-03         7.77947
           11866         36.5827         34.2234    -17.7532E-03         7.44867
           11867         38.1375         35.6344    -66.1363E-03         7.79526
           11868         35.8745         33.5261     82.4501E-03         7.43276
           11869         37.4624         34.9690     40.4035E-03         7.78916
           11870         35.1521         32.8328     192.608E-03         7.39285
           11871         36.7720         34.3066     157.601E-03         7.75922
           11872         34.4151         32.1453     313.241E-03         7.32691
           11873         36.0655         33.6487     286.019E-03         7.70343
           11874         33.6631         31.4652     444.810E-03         7.23291
           11875         35.3425         32.9969     426.169E-03         7.61974
           11876         32.8959         30.7943     587.679E-03         7.10879
           11877         34.6026         32.3526     578.464E-03         7.50608
           11878         32.1135         30.1343     742.060E-03         6.95249
           11879         33.8454         31.7175     743.180E-03         7.36040
           11880         31.3165         29.4872     907.937E-03         6.76208
           11881         33.0711         31.0931     920.375E-03         7.18070
           11882         30.5057         28.8545         1.08497         6.53572
           11883         32.2805         30.4810         1.10980         6.96509
           11884         29.6830         28.2380         1.27233         6.27180
           11885         31.4749         29.8827         1.31077         6.71185
           11886         28.8513         27.6396         1.46855         5.96898
           11887         30.6568         29.2999         1.52200         6.41949
           11888         28.0149         27.0610         1.67121         5.62634
           11889         29.8296         28.7343         1.74132         6.08685
           11890         27.1799         26.5044         1.87661         5.24342
           11891         28.9988         28.1877         1.96545         5.71313
           11892         26.3548         25.9721         2.07928         4.82033
           11893         28.1718         27.6626         2.18952         5.29796
           11894         25.5512         25.4673         2.27136         4.35776
           11895         27.3587         27.1616         2.40659         4.84140
           11896         24.7842         24.9940         2.44184         3.85684
           11897         26.5728         26.6888         2.60701         4.34380
           11898         24.0734         24.5581         2.57566         3.31884
           11899         25.8316         26.2492         2.77770         3.80554
           11900         23.4436         24.1677         2.65277         2.74451
           11901         25.1569         25.8500         2.90139         3.22650
           11902         22.9262         23.8337         2.64733         2.13297
           11903         24.5765         25.5007         2.95599         2.60515
           11904         22.5602         23.5706         2.52726         1.48023
           11905         24.1247         25.2136         2.91413         1.93739
           11906         22.3948         23.3961         2.25439     777.304E-03
           11907         23.8446         25.0041         2.74321         1.21496
           11908         22.4940         23.3325         1.78312     6.46628E-03
           11909         23.7899         24.8901         2.40600     423.754E-03
           11910         62.8939         65.2618         18.0203         13.5135
           11911         61.7864         64.4592         18.6178         13.1154
           11912         61.9276         64.6908         19.4336         13.2870
           11913         63.8482         65.8484         16.3447         13.5364
           11914         62.6911         65.0083         17.1725         13.2358
           11915         64.6897         66.3814         14.5337         13.3143
           11916         63.5497         65.5454         15.5483         13.1622
           11917         65.3486         66.7983         12.7155         12.8597
           11918         64.2917         66.0163         13.8476         12.8799
           11919         65.7941         67.0605         10.9921         12.2210
           11920         64.8698         66.3762         12.1682         12.4085
           11921         66.0298         67.1574         9.42738         11.4610
           11922         65.2652         66.5991         10.5853         11.7902
           11923         66.0817         67.1004         8.04911         10.6401
           11924         65.4831         66.6796         9.14546         11.0760
           11925         65.9847         66.9135         6.85955         9.80657
           11926         65.5441         66.6280         7.86905         10.3137
           11927         65.7747         66.6250         5.84573         8.99487
           11928         65.4761         66.4637         6.75750         9.54226
           11929         65.4838         66.2624         4.98761         8.22673
           11930         65.3077         66.2096         5.80049         8.78991
           11931         65.1382         65.8494         4.26324         7.51423
           11932         65.0652         65.8883         4.98190         8.07530
           11933         64.7583         65.4053         3.65162         6.86263
           11934         64.7704         65.5197         4.28372         7.40930
           11935         64.3596         64.9448         3.13403         6.27280
           11936         64.4411         65.1202         3.68837         6.79714
           11937         63.9532         64.4790         2.69439         5.74289
           11938         64.0909         64.7028         3.17983         6.24025
           11939         63.5470         64.0157         2.31923         5.26959
           11940         63.7299         64.2775         2.74411         5.73764
           11941         63.1463         63.5602         1.99742         4.84886
           11942         63.3656         63.8515         2.36930         5.28686
           11943         62.7547         63.1160         1.71983         4.47642
           11944         63.0030         63.4299         2.04540         4.88472
           11945         62.3742         62.6852         1.47901         4.14808
           11946         62.6459         63.0164         1.76408         4.52770
           11947         62.0058         62.2690         1.26885         3.85986
           11948         62.2965         62.6130         1.51846         4.21223
           11949         61.6501         61.8675         1.08437         3.60809
           11950         61.9561         62.2212         1.30287         3.93487
           11951         61.3068         61.4807     921.508E-03         3.38941
           11952         61.6253         61.8413         1.11260         3.69239
           11953         60.9756         61.1077     776.897E-03         3.20082
           11954         61.3045         61.4735     943.772E-03         3.48178
           11955         60.6556         60.7479     647.778E-03         3.03963
           11956         60.9932         61.1174     793.169E-03         3.30034
           11957         60.3459         60.4002     531.863E-03         2.90343
           11958         60.6911         60.7725     658.119E-03         3.14560
           11959         60.0457         60.0634     427.250E-03         2.79010
           11960         60.3976         60.4378     536.392E-03         3.01536
           11961         59.7539         59.7364     332.354E-03         2.69773
           11962         60.1119         60.1125     426.125E-03         2.90762
           11963         59.4694         59.4179     245.846E-03         2.62466
           11964         59.8332         59.7957     325.754E-03         2.82062
           11965         59.1912         59.1068     166.609E-03         2.56939
           11966         59.5607         59.4862     233.962E-03         2.75277
           11967         58.9183         58.8018     93.6999E-03         2.53058
           11968         59.2934         59.1830     149.635E-03         2.70266
           11969         58.6496         58.5017     26.3208E-03         2.50707
           11970         59.0304         58.8850     71.8309E-03         2.66902
           11971         58.3841         58.2055    -36.2055E-03         2.49779
           11972         58.7710         58.5913    -252.306E-06         2.65071
           11973         58.1211         57.9120    -94.4560E-03         2.50181
           11974         58.5143         58.3007    -67.2975E-03         2.64671
           11975         57.8594         57.6201    -148.923E-03         2.51826
           11976         58.2594         58.0124    -129.888E-03         2.65611
           11977         57.5983         57.3289    -200.026E-03         2.54639
           11978         58.0055         57.7253    -188.522E-03         2.67808
           11979         57.3369         57.0373    -248.124E-03         2.58552
           11980         57.7520         57.4384    -243.625E-03         2.71187
           11981         57.0746         56.7445    -293.525E-03         2.63501
           11982         57.4980         57.1510    -295.564E-03         2.75681
           11983         56.8104         56.4494    -336.488E-03         2.69429
           11984         57.2429         56.8621    -344.649E-03         2.81227
           11985         56.5438         56.1514    -377.238E-03         2.76284
           11986         56.9860         56.5710    -391.147E-03         2.87769
           11987         56.2741         55.8495    -415.963E-03         2.84018
           11988         56.7267         56.2768    -435.284E-03         2.95254
           11989         56.0007         55.5431    -452.820E-03         2.92587
           11990         56.4645         55.9789    -477.250E-03         3.03633
           11991         55.7229         55.2314    -487.941E-03         3.01947
           11992         56.1987         55.6764    -517.205E-03         3.12862
           11993         55.4403         54.9137    -521.433E-03         3.12061
           11994         55.9289         55.3688    -555.281E-03         3.22898
           11995         55.1524         54.5893    -553.383E-03         3.22891
           11996         55.6545         55.0554    -591.584E-03         3.33701
           11997         54.8586         54.2577    -583.856E-03         3.34400
           11998         55.3751         54.7356    -626.198E-03         3.45232
           11999         54.5585         53.9183    -612.900E-03         3.46555
           12000         55.0904         54.4088    -659.186E-03         3.57455
           12001         54.2518         53.5705    -640.545E-03         3.59321
           12002         54.7999         54.0746    -690.590E-03         3.70333
           12003         53.9380         53.2139    -666.806E-03         3.72665
           12004         54.5032         53.7324    -720.435E-03         3.83830
           12005         53.6169         52.8480    -691.680E-03         3.86555
           12006         54.2000         53.3817    -748.729E-03         3.97912
           12007         53.2880         52.4723    -715.153E-03         4.00955
           12008         53.8900         53.0222    -775.463E-03         4.12543
           12009         52.9511         52.0865    -737.194E-03         4.15834
           12010         53.5729         52.6535    -800.609E-03         4.27689
           12011         52.6060         51.6902    -757.756E-03         4.31155
           12012         53.2486         52.2751    -824.127E-03         4.43312
           12013         52.2524         51.2831    -776.781E-03         4.46884
           12014         52.9166         51.8869    -845.958E-03         4.59377
           12015         51.8901         50.8650    -794.194E-03         4.62983
           12016         52.5770         51.4885    -866.028E-03         4.75843
           12017         51.5189         50.4355    -809.907E-03         4.79414
           12018         52.2293         51.0797    -884.249E-03         4.92672
           12019         51.1387         49.9946    -823.815E-03         4.96135
           12020         51.8736         50.6603    -900.513E-03         5.09822
           12021         50.7494         49.5421    -835.800E-03         5.13103
           12022         51.5097         50.2301    -914.697E-03         5.27248
           12023         50.3508         49.0778    -845.725E-03         5.30274
           12024         51.1373         49.7891    -926.662E-03         5.44904
           12025         49.9428         48.6017    -853.441E-03         5.47598
           12026         50.7565         49.3371    -936.250E-03         5.62740
           12027         49.5254         48.1138    -858.776E-03         5.65024
           12028         50.3670         48.8741    -943.283E-03         5.80705
           12029         49.0984         47.6141    -861.544E-03         5.82497
           12030         49.9689         48.4002    -947.566E-03         5.98742
           12031         48.6619         47.1027    -861.540E-03         5.99957
           12032         49.5620         47.9155    -948.883E-03         6.16791
           12033         48.2156         46.5799    -858.536E-03         6.17341
           12034         49.1461         47.4200    -946.995E-03         6.34788
           12035         47.7597         46.0457    -852.287E-03         6.34580
           12036         48.7213         46.9138    -941.645E-03         6.52665
           12037         47.2939         45.5005    -842.522E-03         6.51602
           12038         48.2873         46.3974    -932.548E-03         6.70348
           12039         46.8183         44.9445    -828.949E-03         6.68329
           12040         47.8441         45.8709    -919.397E-03         6.87758
           12041         46.3327         44.3782    -811.253E-03         6.84675
           12042         47.3915         45.3346    -901.859E-03         7.04812
           12043         45.8370         43.8019    -789.092E-03         7.00552
           12044         46.9293         44.7890    -879.574E-03         7.21417
           12045         45.3310         43.2163    -762.096E-03         7.15861
           12046         46.4573         44.2346    -852.155E-03         7.37479
           12047         44.8146         42.6218    -729.870E-03         7.30499
           12048         45.9752         43.6718    -819.183E-03         7.52892
           12049         44.2876         42.0193    -691.988E-03         7.44355
           12050         45.4828         43.1012    -780.211E-03         7.67546
           12051         43.7497         41.4092    -647.997E-03         7.57309
           12052         44.9797         42.5235    -734.762E-03         7.81321
           12053         43.2004         40.7926    -597.411E-03         7.69236
           12054         44.4653         41.9394    -682.325E-03         7.94093
           12055         42.6395         40.1701    -539.717E-03         7.80000
           12056         43.9394         41.3496    -622.361E-03         8.05726
           12057         42.0665         39.5429    -474.370E-03         7.89457
           12058         43.4012         40.7550    -554.296E-03         8.16078
           12059         41.4808         38.9117    -400.799E-03         7.97454
           12060         42.8502         40.1566    -477.529E-03         8.24995
           12061         40.8819         38.2779    -318.406E-03         8.03831
           12062         42.2856         39.5551    -391.431E-03         8.32319
           12063         40.2690         37.6424    -226.571E-03         8.08416
           12064         41.7066         38.9518    -295.350E-03         8.37881
           12065         39.6414         37.0065    -124.660E-03         8.11031
           12066         41.1125         38.3475    -188.616E-03         8.41502
           12067         38.9983         36.3714    -12.0296E-03         8.11491
           12068         40.5022         37.7435    -70.5511E-03         8.42998
           12069         38.3390         35.7384     111.954E-03         8.09599
           12070         39.8749         37.1408     59.5207E-03         8.42176
           12071         37.6626         35.1089     247.902E-03         8.05157
           12072         39.2297         36.5407     202.252E-03         8.38837
           12073         36.9685         34.4842     396.378E-03         7.97960
           12074         38.5655         35.9443     358.253E-03         8.32777
           12075         36.2559         33.8656     557.860E-03         7.87800
           12076         37.8817         35.3529     528.057E-03         8.23789
           12077         35.5245         33.2547     732.702E-03         7.74469
           12078         37.1777         34.7677     712.079E-03         8.11664
           12079         34.7741         32.6528     921.061E-03         7.57765
           12080         36.4531         34.1900     910.556E-03         7.96198
           12081         34.0052         32.0613         1.12282         7.37490
           12082         35.7081         33.6210         1.12347         7.77188
           12083         33.2187         31.4816         1.33747         7.13460
           12084         34.9432         33.0620         1.35044         7.54445
           12085         32.4165         30.9153         1.56397         6.85512
           12086         34.1598         32.5143         1.59060         7.27791
           12087         31.6016         30.3639         1.80052         6.53503
           12088         33.3606         31.9794         1.84242         6.97068
           12089         30.7783         29.8292         2.04434         6.17321
           12090         32.5491         31.4589         2.10344         6.62140
           12091         29.9531         29.3132         2.29128         5.76887
           12092         31.7309         30.9548         2.37005         6.22896
           12093         29.1346         28.8185         2.53545         5.32155
           12094         30.9134         30.4693         2.63707         5.79246
           12095         28.3344         28.3486         2.76863         4.83103
           12096         30.1068         30.0056         2.89733         5.31115
           12097         27.5674         27.9078         2.97974         4.29708
           12098         29.3242         29.5678         3.14119         4.78424
           12099         26.8529         27.5024         3.15414         3.71909
           12100         28.5825         29.1612         3.35601         4.21051
           12101         26.2150         27.1404         3.27305         3.09539
           12102         27.9029         28.7930         3.52562         3.58782
           12103         25.6837         26.8323         3.31313         2.42224
           12104         27.3118         28.4722         3.63003         2.91226
           12105         25.2964         26.5914         3.24636         1.69258
           12106         26.8420         28.2102         3.64523         2.17716
           12107         25.0995         26.4331         3.04043     894.548E-03
           12108         26.5341         28.0205         3.54350         1.37179
           12109         25.1525         26.3760         2.65822     8.22005E-03
           12110         26.4386         27.9182         3.29417     480.098E-03
           12111         61.7049         64.2992         17.8913         12.9537
           12112         60.7544         63.6207         18.4321         12.6019
           12113         60.8464         63.7829         19.1553         12.7656
           12114         62.5649         64.8317         16.4196         12.9888
           12115         61.5696         64.1217         17.1392         12.7079
           12116         63.3555         65.3325         14.8261         12.8373
           12117         62.3604         64.6185         15.6978         12.6652
           12118         64.0215         65.7556         13.2016         12.5000
           12119         63.0743         65.0720         14.1799         12.4585
           12120         64.5309         66.0672         11.6253         12.0036
           12121         63.6715         65.4472         12.6582         12.0961
           12122         64.8750         66.2512         10.1540         11.3895
           12123         64.1304         65.7200         11.1934         11.6035
           12124         65.0634         66.3076         8.82021         10.7020
           12125         64.4462         65.8798         9.82808         11.0157
           12126         65.1158         66.2480         7.63626         9.98075
           12127         64.6274         65.9282         8.58680         10.3690
           12128         65.0568         66.0904         6.60042         9.25745
           12129         64.6903         65.8752         7.47870         9.69583
           12130         64.9104         65.8545         5.70250         8.55489
           12131         64.6547         65.7356         6.50208         9.02225
           12132         64.6986         65.5595         4.92820         7.88808
           12133         64.5404         65.5259         5.64856         8.36746
           12134         64.4398         65.2221         4.26198         7.26588
           12135         64.3657         65.2620         4.90631         7.74446
           12136         64.1490         64.8564         3.68876         6.69269
           12137         64.1462         64.9584         4.26227         7.16125
           12138         63.8377         64.4734         3.19474         6.16979
           12139         63.8950         64.6270         3.70361         6.62207
           12140         63.5148         64.0818         2.76780         5.69645
           12141         63.6223         64.2778         3.21840         6.12846
           12142         63.1868         63.6881         2.39749         5.27070
           12143         63.3362         63.9185         2.79598         5.68017
           12144         62.8585         63.2969         2.07497         4.88990
           12145         63.0427         63.5550         2.42708         5.27579
           12146         62.5332         62.9113         1.79279         4.55109
           12147         62.7464         63.1918         2.10370         4.91322
           12148         62.2131         62.5337         1.54473         4.25122
           12149         62.4505         62.8319         1.81907         4.59002
           12150         61.8995         62.1651         1.32557         3.98730
           12151         62.1574         62.4776         1.56745         4.30359
           12152         61.5934         61.8064         1.13099         3.75649
           12153         61.8685         62.1302         1.34399         4.05136
           12154         61.2949         61.4577     957.377E-03         3.55615
           12155         61.5848         61.7906         1.14462         3.83082
           12156         61.0041         61.1187     801.694E-03         3.38383
           12157         61.3067         61.4590     965.922E-03         3.63961
           12158         60.7206         60.7892     661.410E-03         3.23732
           12159         61.0345         61.1354     805.004E-03         3.47552
           12160         60.4441         60.4683     534.396E-03         3.11461
           12161         60.7680         60.8196     659.430E-03         3.33655
           12162         60.1739         60.1554     418.857E-03         3.01386
           12163         60.5070         60.5112     527.143E-03         3.22083
           12164         59.9095         59.8497     313.279E-03         2.93345
           12165         60.2512         60.2094     406.397E-03         3.12668
           12166         59.6501         59.5502     216.379E-03         2.87190
           12167         59.9998         59.9137     295.710E-03         3.05256
           12168         59.3950         59.2561     127.065E-03         2.82787
           12169         59.7526         59.6233     193.821E-03         2.99710
           12170         59.1434         58.9664     44.4084E-03         2.80018
           12171         59.5088         59.3374     99.6533E-03         2.95903
           12172         58.8946         58.6801    -32.3831E-03         2.78775
           12173         59.2678         59.0552     12.2877E-03         2.93722
           12174         58.6479         58.3965    -103.988E-03         2.78960
           12175         59.0291         58.7759    -69.0645E-03         2.93063
           12176         58.4026         58.1145    -170.988E-03         2.80485
           12177         58.7920         58.4986    -145.080E-03         2.93834
           12178         58.1580         57.8334    -233.880E-03         2.83272
           12179         58.5559         58.2226    -216.338E-03         2.95948
           12180         57.9134         57.5522    -293.092E-03         2.87246
           12181         58.3202         57.9471    -283.339E-03         2.99329
           12182         57.6682         57.2701    -348.989E-03         2.92342
           12183         58.0844         57.6713    -346.510E-03         3.03906
           12184         57.4217         56.9865    -401.885E-03         2.98499
           12185         57.8478         57.3945    -406.218E-03         3.09613
           12186         57.1735         56.7005    -452.046E-03         3.05661
           12187         57.6100         57.1160    -462.778E-03         3.16391
           12188         56.9229         56.4114    -499.699E-03         3.13776
           12189         57.3704         56.8350    -516.456E-03         3.24184
           12190         56.6694         56.1185    -545.035E-03         3.22796
           12191         57.1286         56.5510    -567.478E-03         3.32939
           12192         56.4126         55.8212    -588.210E-03         3.32676
           12193         56.8841         56.2632    -616.035E-03         3.42609
           12194         56.1520         55.5188    -629.357E-03         3.43371
           12195         56.6365         55.9712    -662.281E-03         3.53148
           12196         55.8872         55.2109    -668.577E-03         3.54842
           12197         56.3854         55.6743    -706.345E-03         3.64512
           12198         55.6176         54.8967    -705.951E-03         3.67049
           12199         56.1304         55.3720    -748.326E-03         3.76659
           12200         55.3431         54.5759    -741.537E-03         3.79954
           12201         55.8711         55.0638    -788.298E-03         3.89548
           12202         55.0632         54.2480    -775.371E-03         3.93520
           12203         55.6072         54.7493    -826.314E-03         4.03141
           12204         54.7777         53.9124    -807.470E-03         4.07710
           12205         55.3385         54.4280    -862.401E-03         4.17399
           12206         54.4862         53.5687    -837.833E-03         4.22486
           12207         55.0646         54.0994    -896.569E-03         4.32283
           12208         54.1884         53.2167    -866.440E-03         4.37813
           12209         54.7853         53.7632    -928.807E-03         4.47755
           12210         53.8841         52.8559    -893.255E-03         4.53652
           12211         54.5003         53.4192    -959.082E-03         4.63775
           12212         53.5732         52.4861    -918.221E-03         4.69965
           12213         54.2095         53.0668    -987.344E-03         4.80305
           12214         53.2553         52.1069    -941.266E-03         4.86714
           12215         53.9125         52.7060        -1.01352         4.97302
           12216         52.9303         51.7181    -962.301E-03         5.03856
           12217         53.6093         52.3364        -1.03753         5.14726
           12218         52.5980         51.3195    -981.218E-03         5.21349
           12219         53.2997         51.9579        -1.05927         5.32532
           12220         52.2583         50.9110    -997.892E-03         5.39148
           12221         52.9834         51.5702        -1.07859         5.50675
           12222         51.9110         50.4924        -1.01218         5.57207
           12223         52.6604         51.1732        -1.09537         5.69107
           12224         51.5561         50.0637        -1.02391         5.75474
           12225         52.3305         50.7670        -1.10942         5.87777
           12226         51.1933         49.6247        -1.03291         5.93898
           12227         51.9936         50.3513        -1.12057         6.06632
           12228         50.8225         49.1756        -1.03897         6.12421
           12229         51.6494         49.9262        -1.12860         6.25614
           12230         50.4437         48.7163        -1.04187         6.30984
           12231         51.2979         49.4917        -1.13327         6.44663
           12232         50.0566         48.2470        -1.04136         6.49522
           12233         50.9390         49.0479        -1.13434         6.63715
           12234         49.6613         47.7679        -1.03716         6.67967
           12235         50.5723         48.5949        -1.13151         6.82700
           12236         49.2573         47.2789        -1.02898         6.86245
           12237         50.1978         48.1329        -1.12449         7.01546
           12238         48.8448         46.7806        -1.01650         7.04277
           12239         49.8152         47.6621        -1.11293         7.20174
           12240         48.4233         46.2731    -999.376E-03         7.21980
           12241         49.4243         47.1828        -1.09648         7.38499
           12242         47.9927         45.7567    -977.223E-03         7.39263
           12243         49.0248         46.6952        -1.07473         7.56432
           12244         47.5527         45.2320    -949.636E-03         7.56031
           12245         48.6164         46.1997        -1.04728         7.73876
           12246         47.1031         44.6993    -916.181E-03         7.72179
           12247         48.1987         45.6967        -1.01365         7.90730
           12248         46.6433         44.1592    -876.387E-03         7.87597
           12249         47.7712         45.1867    -973.378E-03         8.06884
           12250         46.1730         43.6122    -829.756E-03         8.02169
           12251         47.3335         44.6702    -925.925E-03         8.22221
           12252         45.6917         43.0591    -775.754E-03         8.15769
           12253         46.8850         44.1478    -870.741E-03         8.36617
           12254         45.1988         42.5004    -713.814E-03         8.28264
           12255         46.4251         43.6201    -807.236E-03         8.49940
           12256         44.6937         41.9369    -643.339E-03         8.39512
           12257         45.9531         43.0876    -734.785E-03         8.62049
           12258         44.1757         41.3694    -563.698E-03         8.49363
           12259         45.4680         42.5513    -652.734E-03         8.72797
           12260         43.6439         40.7988    -474.232E-03         8.57658
           12261         44.9692         42.0117    -560.395E-03         8.82026
           12262         43.0975         40.2260    -374.258E-03         8.64232
           12263         44.4556         41.4697    -457.054E-03         8.89572
           12264         42.5355         39.6519    -263.071E-03         8.68908
           12265         43.9262         40.9261    -341.975E-03         8.95261
           12266         41.9570         39.0775    -139.957E-03         8.71504
           12267         43.3799         40.3819    -214.410E-03         8.98911
           12268         41.3609         38.5038    -4.19846E-03         8.71828
           12269         42.8155         39.8378    -73.6046E-03         9.00335
           12270         40.7462         37.9319     144.903E-03         8.69682
           12271         42.2320         39.2948     81.1812E-03         8.99336
           12272         40.1119         37.3628     308.009E-03         8.64865
           12273         41.6282         38.7540     250.655E-03         8.95712
           12274         39.4569         36.7976     485.718E-03         8.57169
           12275         41.0031         38.2161     435.465E-03         8.89260
           12276         38.7807         36.2375     678.520E-03         8.46386
           12277         40.3557         37.6823     636.166E-03         8.79769
           12278         38.0826         35.6836     886.747E-03         8.32306
           12279         39.6853         37.1534     853.167E-03         8.67031
           12280         37.3624         35.1369         1.11051         8.14725
           12281         38.9916         36.6305         1.08667         8.50837
           12282         36.6205         34.5987         1.34959         7.93444
           12283         38.2746         36.1146         1.33659         8.30984
           12284         35.8579         34.0701         1.60335         7.68275
           12285         37.5349         35.6069         1.60245         8.07277
           12286         35.0766         33.5526         1.87056         7.39042
           12287         36.7741         35.1085         1.88325         7.79527
           12288         34.2795         33.0474         2.14920         7.05587
           12289         35.9946         34.6207         2.17727         7.47561
           12290         33.4712         32.5565         2.43623         6.67770
           12291         35.2002         34.1451         2.48190         7.11217
           12292         32.6581         32.0819         2.72728         6.25467
           12293         34.3964         33.6837         2.79335         6.70340
           12294         31.8488         31.6263         3.01627         5.78565
           12295         33.5907         33.2390         3.10636         6.24784
           12296         31.0547         31.1933         3.29503         5.26944
           12297         32.7929         32.8141         3.41384         5.74389
           12298         30.2904         30.7875         3.55280         4.70449
           12299         32.0157         32.4131         3.70650         5.18961
           12300         29.5743         30.4151         3.77583         4.08852
           12301         31.2754         32.0416         3.97248         4.58238
           12302         28.9296         30.0839         3.94702         3.41779
           12303         30.5922         31.7062         4.19709         3.91833
           12304         28.3847         29.8036         4.04573         2.68633
           12305         29.9911         31.4154         4.36261         3.19166
           12306         27.9751         29.5859         4.04793         1.88485
           12307         29.5031         31.1793         4.44836         2.39378
           12308         27.7445         29.4441         3.92673     999.578E-03
           12309         29.1665         31.0096         4.43113         1.51232
           12310         27.7482         29.3934         3.65223     9.59009E-03
           12311         29.0287         30.9188         4.28599     530.173E-03
           12312         60.7085         63.5136         17.7786         12.4452
           12313         59.8798         62.9311         18.2769         12.1300
           12314         59.9338         63.0398         18.9282         12.2882
           12315         61.4920         64.0024         16.4619         12.4842
           12316         60.6237         63.3936         17.1019         12.2223
           12317         62.2331         64.4725         15.0383         12.3782
           12318         61.3564         63.8561         15.8028         12.1981
           12319         62.8886         64.8893         13.5736         12.1230
           12320         62.0385         64.2898         14.4320         12.0435
           12321         63.4294         65.2249         12.1288         11.7330
           12322         62.6372         64.6673         13.0439         11.7607
           12323         63.8415         65.4623         10.7519         11.2348
           12324         63.1315         64.9676         11.6869         11.3648
           12325         64.1249         65.5958         9.47501         10.6604
           12326         63.5118         65.1787         10.3984         10.8798
           12327         64.2892         65.6293         8.31513         10.0411
           12328         63.7793         65.2973         9.20289         10.3326
           12329         64.3495         65.5729         7.27746         9.40394
           12330         63.9422         65.3274         8.11350         9.74916
           12331         64.3232         65.4400         6.35893         8.77061
           12332         64.0130         65.2776         7.13400         9.15222
           12333         64.2272         65.2451         5.55150         8.15685
           12334         64.0060         65.1594         6.26164         8.55988
           12335         64.0770         65.0018         4.84458         7.57340
           12336         63.9355         64.9850         5.48961         7.98566
           12337         63.8860         64.7224         4.22677         7.02694
           12338         63.8146         64.7659         4.80897         7.43895
           12339         63.6653         64.4174         3.68688         6.52105
           12340         63.6549         64.5129         4.20997         6.92579
           12341         63.4239         64.0954         3.21450         6.05712
           12342         63.4660         64.2351         3.68293         6.44959
           12343         63.1687         63.7631         2.80028         5.63500
           12344         63.2559         63.9400         3.21877         6.01185
           12345         62.9052         63.4258         2.43601         5.25356
           12346         63.0310         63.6339         2.80920         5.61269
           12347         62.6375         63.0875         2.11457         4.91105
           12348         62.7964         63.3215         2.44687         5.25133
           12349         62.3686         62.7510         1.82985         4.60541
           12350         62.5560         63.0066         2.12534         4.92639
           12351         62.1008         62.4185         1.57663         4.33438
           12352         62.3125         62.6920         1.83904         4.63615
           12353         61.8354         62.0913         1.35050         4.09573
           12354         62.0683         62.3796         1.58316         4.37872
           12355         61.5736         61.7701         1.14768         3.88725
           12356         61.8249         62.0708         1.35357         4.15213
           12357         61.3158         61.4555     964.977E-03         3.70684
           12358         61.5834         61.7666         1.14674         3.95446
           12359         61.0623         61.1474     799.692E-03         3.55253
           12360         61.3444         61.4675     959.680E-03         3.78382
           12361         60.8132         60.8458     649.520E-03         3.42248
           12362         61.1083         61.1736     789.795E-03         3.63843
           12363         60.5684         60.5502     512.500E-03         3.31501
           12364         60.8754         60.8848     634.889E-03         3.51664
           12365         60.3275         60.2603     386.961E-03         3.22856
           12366         60.6455         60.6011     493.076E-03         3.41687
           12367         60.0902         59.9754     271.479E-03         3.16173
           12368         60.4186         60.3220     362.742E-03         3.33771
           12369         59.8561         59.6949     164.832E-03         3.11322
           12370         60.1945         60.0470     242.501E-03         3.27783
           12371         59.6246         59.4182     65.9723E-03         3.08185
           12372         59.9727         59.7757     131.160E-03         3.23603
           12373         59.3954         59.1445    -25.9977E-03         3.06656
           12374         59.7530         59.5074     27.6961E-03         3.21118
           12375         59.1679         58.8730    -111.851E-03         3.06636
           12376         59.5350         59.2416    -68.7758E-03         3.20228
           12377         58.9416         58.6032    -192.253E-03         3.08038
           12378         59.3182         58.9776    -159.017E-03         3.20840
           12379         58.7159         58.3343    -267.777E-03         3.10778
           12380         59.1022         58.7148    -243.685E-03         3.22866
           12381         58.4903         58.0655    -338.914E-03         3.14782
           12382         58.8866         58.4526    -323.345E-03         3.26230
           12383         58.2644         57.7961    -406.089E-03         3.19983
           12384         58.6710         58.1902    -398.487E-03         3.30858
           12385         58.0377         57.5256    -469.666E-03         3.26315
           12386         58.4550         57.9272    -469.531E-03         3.36684
           12387         57.8097         57.2532    -529.954E-03         3.33721
           12388         58.2381         57.6629    -536.836E-03         3.43645
           12389         57.5801         56.9784    -587.218E-03         3.42146
           12390         58.0200         57.3967    -600.710E-03         3.51683
           12391         57.3482         56.7005    -641.680E-03         3.51538
           12392         57.8003         57.1280    -661.415E-03         3.60744
           12393         57.1139         56.4190    -693.527E-03         3.61848
           12394         57.5786         56.8563    -719.167E-03         3.70776
           12395         56.8766         56.1333    -742.909E-03         3.73032
           12396         57.3545         56.5811    -774.150E-03         3.81731
           12397         56.6361         55.8429    -789.949E-03         3.85044
           12398         57.1279         56.3019    -826.508E-03         3.93563
           12399         56.3920         55.5474    -834.740E-03         3.97842
           12400         56.8983         56.0183    -876.359E-03         4.06227
           12401         56.1440         55.2462    -877.350E-03         4.11386
           12402         56.6654         55.7297    -923.787E-03         4.19680
           12403         55.8918         54.9389    -917.821E-03         4.25634
           12404         56.4291         55.4357    -968.853E-03         4.33879
           12405         55.6352         54.6252    -956.174E-03         4.40547
           12406         56.1890         55.1361        -1.01159         4.48782
           12407         55.3739         54.3046    -992.407E-03         4.56085
           12408         55.9450         54.8304        -1.05201         4.64348
           12409         55.1077         53.9769        -1.02650         4.72206
           12410         55.6967         54.5182        -1.09009         4.80536
           12411         54.8363         53.6417        -1.05839         4.88872
           12412         55.4441         54.1993        -1.12580         4.97302
           12413         54.5596         53.2987        -1.08804         5.06039
           12414         55.1869         53.8735        -1.15909         5.14605
           12415         54.2774         52.9478        -1.11535         5.23664
           12416         54.9248         53.5405        -1.18986         5.32400
           12417         53.9894         52.5886        -1.14020         5.41704
           12418         54.6579         53.2000        -1.21801         5.50643
           12419         53.6956         52.2211        -1.16249         5.60113
           12420         54.3858         52.8519        -1.24342         5.69285
           12421         53.3958         51.8451        -1.18205         5.78840
           12422         54.1084         52.4961        -1.26594         5.88277
           12423         53.0898         51.4605        -1.19872         5.97836
           12424         53.8255         52.1324        -1.28540         6.07568
           12425         52.7775         51.0672        -1.21230         6.17046
           12426         53.5371         51.7608        -1.30159         6.27104
           12427         52.4587         50.6653        -1.22258         6.36413
           12428         53.2429         51.3812        -1.31431         6.46827
           12429         52.1332         50.2546        -1.22932         6.55877
           12430         52.9426         50.9937        -1.32330         6.66676
           12431         51.8008         49.8353        -1.23225         6.75373
           12432         52.6362         50.5982        -1.32830         6.86587
           12433         51.4614         49.4075        -1.23108         6.94833
           12434         52.3234         50.1949        -1.32899         7.06491
           12435         51.1148         48.9713        -1.22550         7.14183
           12436         52.0039         49.7838        -1.32506         7.26315
           12437         50.7606         48.5268        -1.21515         7.33345
           12438         51.6776         49.3652        -1.31616         7.45981
           12439         50.3986         48.0744        -1.19966         7.52235
           12440         51.3439         48.9391        -1.30188         7.65406
           12441         50.0285         47.6143        -1.17863         7.70766
           12442         51.0027         48.5059        -1.28181         7.84502
           12443         49.6499         47.1467        -1.15161         7.88841
           12444         50.6534         48.0658        -1.25551         8.03174
           12445         49.2624         46.6721        -1.11814         8.06358
           12446         50.2957         47.6191        -1.22247         8.21322
           12447         48.8655         46.1909        -1.07771         8.23211
           12448         49.9290         47.1663        -1.18219         8.38839
           12449         48.4587         45.7034        -1.02977         8.39283
           12450         49.5527         46.7076        -1.13409         8.55610
           12451         48.0413         45.2103    -973.757E-03         8.54453
           12452         49.1662         46.2435        -1.07760         8.71515
           12453         47.6127         44.7120    -909.054E-03         8.68588
           12454         48.7687         45.7745        -1.01206         8.86424
           12455         47.1721         44.2092    -835.015E-03         8.81553
           12456         48.3593         45.3012    -936.827E-03         9.00201
           12457         46.7186         43.7025    -750.958E-03         8.93199
           12458         47.9372         44.8240    -851.181E-03         9.12702
           12459         46.2513         43.1924    -656.170E-03         9.03373
           12460         47.5014         44.3436    -754.388E-03         9.23775
           12461         45.7692         42.6799    -549.909E-03         9.11912
           12462         47.0508         43.8606    -645.679E-03         9.33258
           12463         45.2711         42.1655    -431.407E-03         9.18644
           12464         46.5843         43.3757    -524.258E-03         9.40984
           12465         44.7561         41.6501    -299.881E-03         9.23392
           12466         46.1006         42.8894    -389.310E-03         9.46777
           12467         44.2227         41.1344    -154.541E-03         9.25969
           12468         45.5985         42.4026    -240.012E-03         9.50451
           12469         43.6698         40.6193     5.39857E-03         9.26181
           12470         45.0766         41.9159    -75.5397E-03         9.51817
           12471         43.0962         40.1056     180.694E-03         9.23829
           12472         44.5337         41.4301     104.907E-03         9.50677
           12473         42.5008         39.5942     372.054E-03         9.18709
           12474         43.9685         40.9459     302.086E-03         9.46828
           12475         41.8824         39.0859     580.106E-03         9.10612
           12476         43.3798         40.4640     516.684E-03         9.40063
           12477         41.2402         38.5816     805.348E-03         8.99328
           12478         42.7667         39.9853     749.272E-03         9.30172
           12479         40.5736         38.0822         1.04810         8.84646
           12480         42.1283         39.5105         1.00026         9.16945
           12481         39.8825         37.5887         1.30843         8.66358
           12482         41.4643         39.0404         1.26983         9.00169
           12483         39.1670         37.1019         1.58606         8.44261
           12484         40.7746         38.5760         1.55786         8.79637
           12485         38.4284         36.6231         1.88024         8.18157
           12486         40.0600         38.1182         1.86380         8.55143
           12487         37.6684         36.1533         2.18962         7.87856
           12488         39.3220         37.6680         2.18656         8.26486
           12489         36.8903         35.6941         2.51207         7.53176
           12490         38.5631         37.2268         2.52436         7.93471
           12491         36.0985         35.2470         2.84443         7.13943
           12492         37.7870         36.7960         2.87452         7.55903
           12493         35.2993         34.8144         3.18227         6.69982
           12494         36.9991         36.3777         3.23326         7.13584
           12495         34.5013         34.3989         3.51961         6.21108
           12496         36.2068         35.9744         3.59543         6.66303
           12497         33.7153         34.0043         3.84857         5.67106
           12498         35.4194         35.5893         3.95424         6.13820
           12499         32.9554         33.6351         4.15906         5.07702
           12500         34.6493         35.2264         4.30103         5.55839
           12501         32.2392         33.2972         4.43851         4.42518
           12502         33.9117         34.8909         4.62498         4.91970
           12503         31.5885         32.9980         4.67169         3.71018
           12504         33.2259         34.5892         4.91301         4.21688
           12505         31.0303         32.7462         4.84073         2.92432
           12506         32.6153         34.3288         5.14975         3.44266
           12507         30.5981         32.5519         4.92535         2.05676
           12508         32.1094         34.1188         5.31768         2.58710
           12509         30.3331         32.4264         4.90347         1.09262
           12510         31.7442         33.9687         5.39768         1.63679
           12511         30.2870         32.3819         4.75134     10.6610E-03
           12512         31.5644         33.8890         5.36975     574.206E-03
           12513         59.8627         62.8657         17.6812         11.9772
           12514         59.1308         62.3593         18.1467         11.6916
           12515         59.1544         62.4258         18.7409         11.8456
           12516         60.5839         63.3192         16.4850         12.0158
           12517         59.8169         62.7908         17.0647         11.7712
           12518         61.2798         63.7616         15.1960         11.9399
           12519         60.5005         63.2244         15.8785         11.7581
           12520         61.9171         64.1667         13.8628         11.7432
           12521         61.1510         63.6385         14.6268         11.6401
           12522         62.4700         64.5119         12.5325         11.4330
           12523         61.7420         64.0115         13.3512         11.4161
           12524         62.9234         64.7813         11.2448         11.0264
           12525         62.2542         64.3259         12.0901         11.0950
           12526         63.2721         64.9667         10.0292         10.5461
           12527         62.6763         64.5696         10.8753         10.6930
           12528         63.5190         65.0675         8.90399         10.0162
           12529         63.0050         64.7372         9.72997         10.2299
           12530         63.6725         65.0883         7.87823         9.45900
           12531         63.2434         64.8287         8.66842         9.72606
           12532         63.7441         65.0377         6.95365         8.89377
           12533         63.3985         64.8487         7.69764         9.20053
           12534         63.7462         64.9260         6.12691         8.33569
           12535         63.4800         64.8045         6.81873         8.66952
           12536         63.6912         64.7637         5.39157         7.79608
           12537         63.4985         64.7049         6.02872         8.14603
           12538         63.5904         64.5612         4.73958         7.28285
           12539         63.4644         64.5592         5.32207         7.63989
           12540         63.4538         64.3277         4.16230         6.80112
           12541         63.3874         64.3760         4.69183         7.15809
           12542         63.2898         64.0710         3.65122         6.35383
           12543         63.2762         64.1636         4.13054         6.70527
           12544         63.1054         63.7979         3.19830         5.94230
           12545         63.1383         63.9289         3.63072         6.28420
           12546         62.9062         63.5138         2.79620         5.56670
           12547         62.9799         63.6778         3.18528         5.89625
           12548         62.6968         63.2230         2.43835         5.22640
           12549         62.8063         63.4153         2.78767         5.54172
           12550         62.4806         62.9290         2.11899         4.92025
           12551         62.6214         63.1454         2.43200         5.22021
           12552         62.2605         62.6342         1.83305         4.64677
           12553         62.4288         62.8713         2.11300         4.93082
           12554         62.0385         62.3406         1.57615         4.40432
           12555         62.2309         62.5953         1.82605         4.67233
           12556         61.8159         62.0494         1.34451         4.19119
           12557         62.0299         62.3192         1.56711         4.44334
           12558         61.5941         61.7616         1.13487         4.00566
           12559         61.8272         62.0444         1.33265         4.24236
           12560         61.3736         61.4777     944.418E-03         3.84605
           12561         61.6239         61.7719         1.11962         4.06787
           12562         61.1549         61.1980     770.740E-03         3.71077
           12563         61.4208         61.5021     925.374E-03         3.91837
           12564         60.9383         60.9224     611.760E-03         3.59830
           12565         61.2185         61.2355     747.621E-03         3.79242
           12566         60.7239         60.6508     465.688E-03         3.50723
           12567         61.0174         60.9720     584.382E-03         3.68864
           12568         60.5116         60.3830     330.986E-03         3.43623
           12569         60.8175         60.7118     433.941E-03         3.60573
           12570         60.3012         60.1186     206.323E-03         3.38408
           12571         60.6190         60.4545     294.818E-03         3.54246
           12572         60.0926         59.8571     90.5534E-03         3.34966
           12573         60.4217         60.2000     165.725E-03         3.49770
           12574         59.8855         59.5981    -17.3149E-03         3.33193
           12575         60.2257         59.9477     45.5505E-03         3.47039
           12576         59.6795         59.3410    -118.139E-03         3.32992
           12577         60.0306         59.6975    -66.6705E-03         3.45956
           12578         59.4744         59.0853    -212.660E-03         3.34276
           12579         59.8364         59.4487    -171.775E-03         3.46428
           12580         59.2698         58.8304    -301.520E-03         3.36963
           12581         59.6426         59.2009    -270.489E-03         3.48372
           12582         59.0654         58.5758    -385.271E-03         3.40977
           12583         59.4492         58.9537    -363.440E-03         3.51710
           12584         58.8608         58.3209    -464.394E-03         3.46249
           12585         59.2557         58.7065    -451.172E-03         3.56368
           12586         58.6557         58.0651    -539.297E-03         3.52714
           12587         59.0620         58.4588    -534.155E-03         3.62279
           12588         58.4496         57.8079    -610.335E-03         3.60311
           12589         58.8677         58.2102    -612.791E-03         3.69379
           12590         58.2424         57.5488    -677.808E-03         3.68982
           12591         58.6725         57.9601    -687.427E-03         3.77610
           12592         58.0337         57.2873    -741.968E-03         3.78676
           12593         58.4763         57.7081    -758.356E-03         3.86914
           12594         57.8231         57.0228    -803.029E-03         3.89340
           12595         58.2786         57.4537    -825.825E-03         3.97239
           12596         57.6104         56.7549    -861.163E-03         4.00926
           12597         58.0793         57.1965    -890.037E-03         4.08534
           12598         57.3953         56.4831    -916.509E-03         4.13388
           12599         57.8782         56.9360    -951.159E-03         4.20750
           12600         57.1775         56.2071    -969.175E-03         4.26680
           12601         57.6749         56.6719        -1.00932         4.33840
           12602         56.9569         55.9264        -1.01924         4.40759
           12603         57.4693         56.4038        -1.06462         4.47759
           12604         56.7331         55.6406        -1.06675         4.55582
           12605         57.2611         56.1313        -1.11712         4.62462
           12606         56.5059         55.3495        -1.11172         4.71104
           12607         57.0503         55.8541        -1.16687         4.77904
           12608         56.2752         55.0527        -1.15416         4.87285
           12609         56.8364         55.5718        -1.21387         4.94041
           12610         56.0408         54.7498        -1.19403         5.04079
           12611         56.6195         55.2842        -1.25810         5.10828
           12612         55.8024         54.4406        -1.23129         5.21445
           12613         56.3992         54.9911        -1.29952         5.28222
           12614         55.5598         54.1250        -1.26586         5.39336
           12615         56.1756         54.6921        -1.33806         5.46175
           12616         55.3130         53.8026        -1.29763         5.57706
           12617         55.9482         54.3872        -1.37363         5.64641
           12618         55.0618         53.4734        -1.32648         5.76508
           12619         55.7171         54.0760        -1.40610         5.83572
           12620         54.8059         53.1371        -1.35227         5.95693
           12621         55.4820         53.7585        -1.43533         6.02916
           12622         54.5452         52.7936        -1.37483         6.15208
           12623         55.2428         53.4346        -1.46115         6.22623
           12624         54.2795         52.4429        -1.39394         6.34998
           12625         54.9992         53.1041        -1.48336         6.42637
           12626         54.0087         52.0849        -1.40940         6.55007
           12627         54.7512         52.7670        -1.50174         6.62901
           12628         53.7326         51.7196        -1.42095         6.75173
           12629         54.4984         52.4233        -1.51603         6.83352
           12630         53.4508         51.3471        -1.42831         6.95432
           12631         54.2406         52.0730        -1.52595         7.03929
           12632         53.1632         50.9673        -1.43118         7.15716
           12633         53.9776         51.7161        -1.53119         7.24561
           12634         52.8696         50.5803        -1.42922         7.35952
           12635         53.7092         51.3527        -1.53140         7.45178
           12636         52.5695         50.1864        -1.42207         7.56064
           12637         53.4349         50.9829        -1.52622         7.65701
           12638         52.2627         49.7856        -1.40933         7.75968
           12639         53.1544         50.6068        -1.51523         7.86051
           12640         51.9489         49.3782        -1.39056         7.95578
           12641         52.8673         50.2247        -1.49800         8.06139
           12642         51.6274         48.9643        -1.36531         8.14799
           12643         52.5732         49.8366        -1.47405         8.25875
           12644         51.2979         48.5444        -1.33307         8.33534
           12645         52.2715         49.4429        -1.44286         8.45159
           12646         50.9599         48.1186        -1.29330         8.51676
           12647         51.9616         49.0438        -1.40389         8.63888
           12648         50.6126         47.6873        -1.24544         8.69113
           12649         51.6429         48.6396        -1.35654         8.81949
           12650         50.2553         47.2510        -1.18886         8.85725
           12651         51.3146         48.2308        -1.30019         8.99227
           12652         49.8874         46.8100        -1.12292         9.01386
           12653         50.9759         47.8175        -1.23417         9.15596
           12654         49.5079         46.3648        -1.04693         9.15962
           12655         50.6260         47.4003        -1.15777         9.30924
           12656         49.1158         45.9159    -960.156E-03         9.29310
           12657         50.2638         46.9796        -1.07025         9.45071
           12658         48.7103         45.4638    -861.848E-03         9.41282
           12659         49.8883         46.5557    -970.819E-03         9.57890
           12660         48.2900         45.0091    -751.206E-03         9.51719
           12661         49.4983         46.1293    -858.661E-03         9.69226
           12662         47.8539         44.5523    -627.406E-03         9.60455
           12663         49.0926         45.7008    -732.930E-03         9.78916
           12664         47.4007         44.0940    -489.604E-03         9.67317
           12665         48.6698         45.2707    -592.751E-03         9.86789
           12666         46.9290         43.6349    -336.940E-03         9.72125
           12667         48.2286         44.8395    -437.234E-03         9.92666
           12668         46.4375         43.1756    -168.553E-03         9.74689
           12669         47.7676         44.4079    -265.483E-03         9.96363
           12670         45.9248         42.7166     16.4069E-03         9.74814
           12671         47.2853         43.9763    -76.6100E-03         9.97687
           12672         45.3896         42.2588     218.751E-03         9.72301
           12673         46.7804         43.5453     130.246E-03         9.96440
           12674         44.8306         41.8026     439.234E-03         9.66943
           12675         46.2515         43.1156     355.890E-03         9.92418
           12676         44.2467         41.3489     678.510E-03         9.58530
           12677         45.6973         42.6876     601.048E-03         9.85412
           12678         43.6370         40.8983     937.095E-03         9.46851
           12679         45.1168         42.2620     866.316E-03         9.75210
           12680         43.0007         40.4516         1.21530         9.31692
           12681         44.5092         41.8395         1.15212         9.61600
           12682         42.3378         40.0095         1.51319         9.12840
           12683         43.8740         41.4206         1.45863         9.44363
           12684         41.6485         39.5728         1.83042         8.90082
           12685         43.2113         41.0063         1.78572         9.23286
           12686         40.9339         39.1426         2.16622         8.63210
           12687         42.5218         40.5972         2.13281         8.98149
           12688         40.1959         38.7199         2.51919         8.32013
           12689         41.8069         40.1945         2.49881         8.68737
           12690         39.4376         38.3062         2.88716         7.96285
           12691         41.0692         39.7994         2.88194         8.34827
           12692         38.6635         37.9031         3.26700         7.55810
           12693         40.3123         39.4133         3.27958         7.96191
           12694         37.8796         37.5129         3.65442         7.10361
           12695         39.5415         39.0383         3.68809         7.52585
           12696         37.0942         37.1383         4.04368         6.59683
           12697         38.7637         38.6768         4.10259         7.03736
           12698         36.3177         36.7828         4.42745         6.03473
           12699         37.9880         38.3319         4.51681         6.49329
           12700         35.5635         36.4510         4.79651         5.41349
           12701         37.2259         38.0075         4.92285         5.88975
           12702         34.8482         36.1483         5.13966         4.72814
           12703         36.4921         37.7085         5.31112         5.22183
           12704         34.1923         35.8814         5.44362         3.97200
           12705         35.8044         37.4407         5.67020         4.48313
           12706         33.6215         35.6580         5.69318         3.13613
           12707         35.1852         37.2106         5.98701         3.66532
           12708         33.1671         35.4868         5.87151         2.20866
           12709         34.6621         37.0260         6.24699         2.75752
           12710         32.8683         35.3770         5.96076         1.17410
           12711         34.2693         36.8950         6.43461         1.74574
           12712         32.7737         35.3383         5.94238     11.4830E-03
           12713         34.0491         36.8259         6.53409     612.451E-03
           12714         59.1373         62.3276         17.5975         11.5416
           12715         58.4836         61.8826         18.0372         11.2801
           12716         58.4823         61.9151         18.5853         11.4310
           12717         59.8073         62.7523         16.4968         11.5777
           12718         59.1227         62.2887         17.0299         11.3484
           12719         60.4635         63.1704         15.3157         11.5219
           12720         59.7647         62.6980         15.9343         11.3419
           12721         61.0795         63.5620         14.0909         11.3677
           12722         60.3858         63.0938         14.7799         11.2500
           12723         61.6337         63.9088         12.8591         11.1181
           12724         60.9646         63.4593         13.5988         11.0701
           12725         62.1111         64.1965         11.6529         10.7839
           12726         61.4839         63.7796         12.4217         10.8072
           12727         62.5041         64.4165         10.4981         10.3812
           12728         61.9323         64.0437         11.2754         10.4723
           12729         62.8115         64.5656         9.41269         9.92817
           12730         62.3043         64.2452         10.1806         10.0796
           12731         63.0369         64.6449         8.40756         9.44294
           12732         62.5994         64.3820         9.15160         9.64513
           12733         63.1873         64.6594         7.48736         8.94191
           12734         62.8208         64.4558         8.19708         9.18434
           12735         63.2715         64.6159         6.65210         8.43894
           12736         62.9745         64.4709         7.32056         8.71131
           12737         63.2986         64.5223         5.89859         7.94510
           12738         63.0680         64.4334         6.52184         8.23796
           12739         63.2778         64.3869         5.22163         7.46873
           12740         63.1091         64.3502         5.79805         7.77388
           12741         63.2177         64.2174         4.61492         7.01582
           12742         63.1059         64.2284         5.14463         7.32639
           12743         63.1259         64.0209         4.07177         6.59034
           12744         63.0656         64.0748         4.55609         6.90081
           12745         63.0087         63.8035         3.58554         6.19471
           12746         62.9950         63.8956         4.02655         6.50078
           12747         62.8719         63.5706         3.14990         5.83015
           12748         62.8998         63.6964         3.55014         6.12856
           12749         62.7200         63.3266         2.75899         5.49696
           12750         62.7850         63.4819         3.12120         5.78534
           12751         62.5567         63.0749         2.40751         5.19484
           12752         62.6549         63.2560         2.73449         5.47155
           12753         62.3852         62.8185         2.09070         4.92302
           12754         62.5130         63.0221         2.38520         5.18699
           12755         62.2078         62.5597         1.80435         4.68044
           12756         62.3621         62.7829         2.06899         4.93109
           12757         62.0264         62.3000         1.54476         4.46589
           12758         62.2044         62.5404         1.78200         4.70296
           12759         61.8424         62.0408         1.30869         4.27806
           12760         62.0419         62.2964         1.52081         4.50156
           12761         61.6571         61.7830         1.09331         4.11559
           12762         61.8760         62.0519         1.28239         4.32576
           12763         61.4711         61.5271     896.149E-03         3.97714
           12764         61.7079         61.8079         1.06409         4.17434
           12765         61.2852         61.2735     715.062E-03         3.86141
           12766         61.5383         61.5651     863.597E-03         4.04611
           12767         61.0996         61.0224     548.182E-03         3.76714
           12768         61.3679         61.3239     678.870E-03         3.93990
           12769         60.9145         60.7737     393.887E-03         3.69314
           12770         61.1971         61.0843     508.135E-03         3.85454
           12771         60.7302         60.5274     250.766E-03         3.63828
           12772         61.0263         60.8466     349.844E-03         3.78894
           12773         60.5467         60.2832     117.592E-03         3.60151
           12774         60.8557         60.6106     202.640E-03         3.74207
           12775         60.3638         60.0408    -6.70403E-03         3.58184
           12776         60.6853         60.3762     65.3441E-03         3.71294
           12777         60.1815         59.7999    -123.049E-03         3.57834
           12778         60.5152         60.1432    -63.0762E-03         3.70061
           12779         59.9997         59.5601    -232.252E-03         3.59018
           12780         60.3454         59.9113    -183.520E-03         3.70423
           12781         59.8181         59.3210    -335.014E-03         3.61653
           12782         60.1757         59.6802    -296.771E-03         3.72297
           12783         59.6366         59.0822    -431.943E-03         3.65665
           12784         60.0060         59.4495    -403.511E-03         3.75608
           12785         59.4550         58.8432    -523.567E-03         3.70985
           12786         59.8363         59.2189    -504.332E-03         3.80282
           12787         59.2730         58.6036    -610.341E-03         3.77548
           12788         59.6664         58.9880    -599.748E-03         3.86254
           12789         59.0904         58.3630    -692.657E-03         3.85290
           12790         59.4961         58.7564    -690.202E-03         3.93458
           12791         58.9070         58.1208    -770.849E-03         3.94156
           12792         59.3252         58.5237    -776.073E-03         4.01836
           12793         58.7226         57.8768    -845.199E-03         4.04089
           12794         59.1536         58.2895    -857.686E-03         4.11330
           12795         58.5369         57.6304    -915.943E-03         4.15036
           12796         58.9812         58.0535    -935.312E-03         4.21886
           12797         58.3498         57.3813    -983.276E-03         4.26949
           12798         58.8076         57.8153        -1.00918         4.33451
           12799         58.1610         57.1292        -1.04735         4.39777
           12800         58.6328         57.5745        -1.07946         4.45975
           12801         57.9703         56.8736        -1.10829         4.53474
           12802         58.4566         57.3308        -1.14632         4.59410
           12803         57.7776         56.6142        -1.16618         4.67993
           12804         58.2789         57.0840        -1.20985         4.73707
           12805         57.5827         56.3507        -1.22107         4.83289
           12806         58.0994         56.8336        -1.27012         4.88820
           12807         57.3854         56.0828        -1.27299         4.99317
           12808         57.9180         56.5794        -1.32719         5.04702
           12809         57.1856         55.8102        -1.32193         5.16030
           12810         57.7346         56.3212        -1.38105         5.21306
           12811         56.9830         55.5327        -1.36786         5.33384
           12812         57.5491         56.0586        -1.43168         5.38586
           12813         56.7775         55.2500        -1.41071         5.51332
           12814         57.3612         55.7916        -1.47904         5.56494
           12815         56.5690         54.9620        -1.45040         5.69825
           12816         57.1709         55.5198        -1.52305         5.74982
           12817         56.3572         54.6684        -1.48682         5.88816
           12818         56.9779         55.2432        -1.56359         5.94000
           12819         56.1421         54.3691        -1.51981         6.08254
           12820         56.7821         54.9615        -1.60053         6.13498
           12821         55.9234         54.0641        -1.54922         6.28086
           12822         56.5834         54.6747        -1.63370         6.33423
           12823         55.7010         53.7531        -1.57485         6.48256
           12824         56.3815         54.3826        -1.66291         6.53718
           12825         55.4747         53.4362        -1.59646         6.68709
           12826         56.1762         54.0852        -1.68794         6.74327
           12827         55.2442         53.1133        -1.61381         6.89382
           12828         55.9674         53.7825        -1.70852         6.95189
           12829         55.0093         52.7844        -1.62661         7.10212
           12830         55.7547         53.4744        -1.72438         7.16241
           12831         54.7697         52.4495        -1.63454         7.31131
           12832         55.5380         53.1609        -1.73519         7.37414
           12833         54.5252         52.1087        -1.63726         7.52068
           12834         55.3168         52.8421        -1.74060         7.58638
           12835         54.2753         51.7620        -1.63438         7.72947
           12836         55.0909         52.5180        -1.74023         7.79838
           12837         54.0198         51.4096        -1.62550         7.93688
           12838         54.8598         52.1887        -1.73365         8.00933
           12839         53.7582         51.0517        -1.61016         8.14204
           12840         54.6231         51.8545        -1.72042         8.21840
           12841         53.4900         50.6883        -1.58788         8.34404
           12842         54.3803         51.5153        -1.70003         8.42468
           12843         53.2146         50.3197        -1.55813         8.54193
           12844         54.1308         51.1714        -1.67195         8.62723
           12845         52.9315         49.9461        -1.52035         8.73468
           12846         53.8741         50.8229        -1.63561         8.82502
           12847         52.6400         49.5679        -1.47394         8.92119
           12848         53.6093         50.4702        -1.59039         9.01699
           12849         52.3393         49.1853        -1.41825         9.10031
           12850         53.3358         50.1135        -1.53564         9.20200
           12851         52.0286         48.7985        -1.35261         9.27081
           12852         53.0527         49.7530        -1.47067         9.37885
           12853         51.7069         48.4081        -1.27629         9.43141
           12854         52.7589         49.3891        -1.39472         9.54626
           12855         51.3733         48.0143        -1.18852         9.58072
           12856         52.4536         49.0220        -1.30703         9.70288
           12857         51.0267         47.6175        -1.08850         9.71730
           12858         52.1355         48.6522        -1.20676         9.84730
           12859         50.6658         47.2182    -975.389E-03         9.83963
           12860         51.8035         48.2799        -1.09306         9.97803
           12861         50.2894         46.8168    -848.317E-03         9.94611
           12862         51.4563         47.9057    -965.042E-03         10.0935
           12863         49.8962         46.4137    -706.383E-03         10.0351
           12864         51.0925         47.5297    -821.768E-03         10.1920
           12865         49.4847         46.0095    -548.665E-03         10.1047
           12866         50.7106         47.1525    -662.296E-03         10.2719
           12867         49.0535         45.6045    -374.230E-03         10.1533
           12868         50.3092         46.7744    -485.660E-03         10.3314
           12869         48.6012         45.1993    -182.149E-03         10.1789
           12870         49.8868         46.3960    -290.897E-03         10.3686
           12871         48.1262         44.7944     28.4897E-03         10.1795
           12872         49.4418         46.0175    -77.0535E-03         10.3816
           12873         47.6272         44.3903     258.552E-03         10.1532
           12874         48.9727         45.6394     156.790E-03         10.3683
           12875         47.1027         43.9874     508.838E-03         10.0978
           12876         48.4782         45.2622     411.492E-03         10.3268
           12877         46.5517         43.5864     780.040E-03         10.0113
           12878         47.9569         44.8862     687.818E-03         10.2550
           12879         45.9731         43.1877         1.07270         9.89143
           12880         47.4078         44.5121     986.403E-03         10.1506
           12881         45.3662         42.7920         1.38714         9.73610
           12882         46.8299         44.1403         1.30770         10.0115
           12883         44.7310         42.3999         1.72342         9.54310
           12884         46.2230         43.7713         1.65190         9.83557
           12885         44.0676         42.0122         2.08122         9.31019
           12886         45.5869         43.4058         2.01890         9.62044
           12887         43.3772         41.6297         2.45977         9.03513
           12888         44.9224         43.0446         2.40815         9.36383
           12889         42.6616         41.2535         2.85770         8.71562
           12890         44.2310         42.6887         2.81862         9.06338
           12891         41.9239         40.8850         3.27290         8.34927
           12892         43.5150         42.3392         3.24861         8.71660
           12893         41.1683         40.5258         3.70239         7.93354
           12894         42.7780         41.9976         3.69566         8.32087
           12895         40.4008         40.1781         4.14213         7.46563
           12896         42.0249         41.6657         4.15638         7.87329
           12897         39.6291         39.8446         4.58685         6.94234
           12898         41.2625         41.3461         4.62633         7.37056
           12899         38.8631         39.5287         5.02986         6.35986
           12900         40.4993         41.0415         5.09983         6.80886
           12901         38.1154         39.2345         5.46299         5.71347
           12902         39.7462         40.7558         5.56993         6.18351
           12903         37.4018         38.9671         5.87645         4.99720
           12904         39.0168         40.4931         6.02827         5.48875
           12905         36.7416         38.7323         6.25893         4.20339
           12906         38.3281         40.2587         6.46514         4.71735
           12907         36.1589         38.5367         6.59773         3.32223
           12908         37.7012         40.0584         6.86963         3.86017
           12909         35.6835         38.3878         6.87912         2.34120
           12910         37.1622         39.8985         7.22986         2.90577
           12911         35.3524         38.2930         7.08895         1.24465
           12912         36.7435         39.7857         7.53348         1.83992
           12913         35.2118         38.2598         7.21289     12.1045E-03
           12914         36.4854         39.7265         7.76828     645.334E-03
           12915         58.5101         61.8786         17.5259         11.1324
           12916         57.9205         61.4838         17.9451         10.8908
           12917         57.8985         61.4884         18.4555         11.0393
           12918         59.1378         62.2794         16.5020         11.1649
           12919         58.5209         61.8691         16.9983         10.9491
           12920         59.7594         62.6766         15.4085         11.1229
           12921         59.1278         62.2579         15.9764         10.9462
           12922         60.3540         63.0546         14.2735         11.0000
           12923         59.7224         62.6373         14.9021         10.8733
           12924         60.9033         63.3986         13.1259         10.7968
           12925         60.2871         62.9939         13.8006         10.7270
           12926         61.3936         63.6962         11.9925         10.5201
           12927         60.8072         63.3153         12.6966         10.5098
           12928         61.8162         63.9391         10.8954         10.1812
           12929         61.2717         63.5918         11.6123         10.2291
           12930         62.1676         64.1226         9.85139         9.79367
           12931         61.6739         63.8167         10.5660         9.89534
           12932         62.4483         64.2461         8.87187         9.37199
           12933         62.0113         63.9868         9.57149         9.52061
           12934         62.6618         64.3116         7.96311         8.92984
           12935         62.2846         64.1020         8.63774         9.11752
           12936         62.8138         64.3236         7.12739         8.47944
           12937         62.4969         64.1644         7.76980         8.69797
           12938         62.9109         64.2877         6.36393         8.03108
           12939         62.6532         64.1780         6.96936         8.27254
           12940         62.9603         64.2102         5.66979         7.59302
           12941         62.7591         64.1478         6.23558         7.85019
           12942         62.9689         64.0974         5.04072         7.17155
           12943         62.8208         64.0792         5.56580         7.43813
           12944         62.9431         63.9553         4.47169         6.77128
           12945         62.8444         63.9779         4.95626         7.04197
           12946         62.8889         63.7895         3.95742         6.39536
           12947         62.8355         63.8492         4.40251         6.66581
           12948         62.8115         63.6048         3.49261         6.04579
           12949         62.7994         63.6979         3.89985         6.31255
           12950         62.7152         63.4056         3.07219         5.72365
           12951         62.7408         63.5286         3.44356         5.98405
           12952         62.6040         63.1954         2.69141         5.42931
           12953         62.6636         63.3451         3.02909         5.68136
           12954         62.4808         62.9772         2.34594         5.16264
           12955         62.5714         63.1505         2.65215         5.40492
           12956         62.3485         62.7535         2.03183         4.92315
           12957         62.4671         62.9478         2.30877         5.15467
           12958         62.2091         62.5261         1.74553         4.71009
           12959         62.3531         62.7391         1.99535         4.93025
           12960         62.0643         62.2965         1.48392         4.52253
           12961         62.2315         62.5262         1.70864         4.73102
           12962         61.9156         62.0661         1.24419         4.35946
           12963         62.1040         62.3107         1.44572         4.55620
           12964         61.7640         61.8355         1.02388         4.21981
           12965         61.9720         62.0937         1.20398         4.40490
           12966         61.6104         61.6056     820.839E-03         4.10249
           12967         61.8364         61.8759     981.131E-03         4.27616
           12968         61.4554         61.3765     633.145E-03         4.00644
           12969         61.6983         61.6582     775.120E-03         4.16902
           12970         61.2996         61.1486     459.132E-03         3.93061
           12971         61.5583         61.4408     584.148E-03         4.08250
           12972         61.1432         60.9221     297.333E-03         3.87398
           12973         61.4169         61.2241     406.628E-03         4.01563
           12974         60.9866         60.6968     146.462E-03         3.83560
           12975         61.2745         61.0082     241.161E-03         3.96750
           12976         60.8298         60.4726     5.39394E-03         3.81455
           12977         61.1315         60.7931     86.5179E-03         3.93720
           12978         60.6730         60.2495    -126.857E-03         3.80995
           12979         60.9879         60.5789    -58.3810E-03         3.92388
           12980         60.5161         60.0271    -251.153E-03         3.82100
           12981         60.8441         60.3653    -194.484E-03         3.92672
           12982         60.3591         59.8053    -368.245E-03         3.84693
           12983         60.6999         60.1522    -322.621E-03         3.94495
           12984         60.2021         59.5836    -478.789E-03         3.88699
           12985         60.5556         59.9394    -443.518E-03         3.97784
           12986         60.0449         59.3619    -583.357E-03         3.94051
           12987         60.4110         59.7266    -557.809E-03         4.02468
           12988         59.8874         59.1397    -682.441E-03         4.00684
           12989         60.2662         59.5136    -666.045E-03         4.08482
           12990         59.7295         58.9168    -776.468E-03         4.08537
           12991         60.1211         59.3002    -768.702E-03         4.15762
           12992         59.5711         58.6928    -865.801E-03         4.17550
           12993         59.9756         59.0859    -866.191E-03         4.24250
           12994         59.4120         58.4673    -950.751E-03         4.27668
           12995         59.8297         58.8706    -958.862E-03         4.33887
           12996         59.2522         58.2401        -1.03157         4.38837
           12997         59.6833         58.6539        -1.04701         4.44619
           12998         59.0915         58.0108        -1.10849         4.51007
           12999         59.5363         58.4356        -1.13088         4.56393
           13000         58.9297         57.7790        -1.18165         4.64125
           13001         59.3886         58.2153        -1.21067         4.69156
           13002         58.7668         57.5446        -1.25121         4.78145
           13003         59.2400         57.9928        -1.28654         4.82860
           13004         58.6026         57.3072        -1.31724         4.93017
           13005         59.0906         57.7679        -1.35860         4.97454
           13006         58.4369         57.0666        -1.37981         5.08694
           13007         58.9401         57.5402        -1.42693         5.12891
           13008         58.2697         56.8224        -1.43895         5.25129
           13009         58.7885         57.3096        -1.49157         5.29121
           13010         58.1007         56.5746        -1.49464         5.42274
           13011         58.6357         57.0759        -1.55254         5.46096
           13012         57.9300         56.3228        -1.54684         5.60081
           13013         58.4815         56.8388        -1.60979         5.63768
           13014         57.7572         56.0669        -1.59549         5.78501
           13015         58.3258         56.5981        -1.66329         5.82087
           13016         57.5824         55.8067        -1.64049         5.97484
           13017         58.1685         56.3538        -1.71293         6.01003
           13018         57.4052         55.5421        -1.68170         6.16980
           13019         58.0094         56.1056        -1.75859         6.20463
           13020         57.2256         55.2729        -1.71896         6.36934
           13021         57.8484         55.8535        -1.80012         6.40415
           13022         57.0434         54.9991        -1.75208         6.57292
           13023         57.6853         55.5974        -1.83733         6.60804
           13024         56.8583         54.7206        -1.78084         6.77997
           13025         57.5199         55.3371        -1.87000         6.81571
           13026         56.6702         54.4373        -1.80499         6.98987
           13027         57.3519         55.0726        -1.89788         7.02656
           13028         56.4788         54.1492        -1.82423         7.20199
           13029         57.1811         54.8040        -1.92069         7.23997
           13030         56.2837         53.8563        -1.83825         7.41568
           13031         57.0073         54.5311        -1.93810         7.45527
           13032         56.0848         53.5586        -1.84670         7.63022
           13033         56.8300         54.2540        -1.94976         7.67176
           13034         55.8816         53.2562        -1.84919         7.84488
           13035         56.6490         53.9728        -1.95528         7.88872
           13036         55.6737         52.9492        -1.84528         8.05885
           13037         56.4638         53.6874        -1.95423         8.10535
           13038         55.4607         52.6376        -1.83452         8.27132
           13039         56.2740         53.3980        -1.94614         8.32084
           13040         55.2421         52.3216        -1.81641         8.48140
           13041         56.0791         53.1048        -1.93051         8.53432
           13042         55.0173         52.0013        -1.79041         8.68815
           13043         55.8784         52.8077        -1.90678         8.74486
           13044         54.7856         51.6770        -1.75592         8.89057
           13045         55.6713         52.5069        -1.87437         8.95149
           13046         54.5463         51.3487        -1.71234         9.08762
           13047         55.4571         52.2027        -1.83265         9.15317
           13048         54.2987         51.0168        -1.65899         9.27818
           13049         55.2350         51.8952        -1.78093         9.34881
           13050         54.0419         50.6814        -1.59516         9.46107
           13051         55.0042         51.5847        -1.71850         9.53724
           13052         53.7749         50.3429        -1.52011         9.63504
           13053         54.7635         51.2712        -1.64460         9.71726
           13054         53.4967         50.0014        -1.43302         9.79877
           13055         54.5120         50.9552        -1.55840         9.88755
           13056         53.2061         49.6574        -1.33308         9.95087
           13057         54.2486         50.6368        -1.45907         10.0468
           13058         52.9019         49.3111        -1.21939         10.0899
           13059         53.9719         50.3163        -1.34570         10.1935
           13060         52.5829         48.9628        -1.09104         10.2143
           13061         53.6808         49.9939        -1.21736         10.3261
           13062         52.2476         48.6129    -947.085E-03         10.3224
           13063         53.3737         49.6701        -1.07308         10.4432
           13064         51.8945         48.2617    -786.549E-03         10.4126
           13065         53.0492         49.3449    -911.865E-03         10.5430
           13066         51.5222         47.9096    -608.436E-03         10.4832
           13067         52.7058         49.0188    -732.690E-03         10.6239
           13068         51.1292         47.5569    -411.743E-03         10.5322
           13069         52.3419         48.6921    -534.520E-03         10.6839
           13070         50.7137         47.2040    -195.473E-03         10.5578
           13071         51.9558         48.3650    -316.322E-03         10.7214
           13072         50.2744         46.8512     41.3475E-03         10.5580
           13073         51.5461         48.0378    -77.0773E-03         10.7342
           13074         49.8097         46.4990     299.643E-03         10.5308
           13075         51.1112         47.7109     184.194E-03         10.7204
           13076         49.3182         46.1477     580.262E-03         10.4741
           13077         50.6495         47.3845     468.404E-03         10.6780
           13078         48.7987         45.7976     883.943E-03         10.3857
           13079         50.1598         47.0590     776.375E-03         10.6048
           13080         48.2502         45.4493         1.21126         10.2636
           13081         49.6410         46.7349         1.10879         10.4987
           13082         47.6721         45.1033         1.56259         10.1054
           13083         49.0922         46.4124         1.46614         10.3575
           13084         47.0641         44.7600         1.93802         9.90887
           13085         48.5129         46.0920         1.84869         10.1787
           13086         46.4265         44.4202         2.33727         9.67167
           13087         47.9032         45.7744         2.25637         9.96010
           13088         45.7604         44.0847         2.75964         9.39138
           13089         47.2637         45.4603         2.68873         9.69922
           13090         45.0675         43.7544         3.20385         9.06547
           13091         46.5958         45.1504         3.14484         9.39347
           13092         44.3508         43.4307         3.66796         8.69125
           13093         45.9019         44.8460         3.62316         9.04011
           13094         43.6144         43.1153         4.14923         8.26580
           13095         45.1851         44.5485         4.12149         8.63615
           13096         42.8639         42.8100         4.64399         7.78581
           13097         44.4504         44.2596         4.63679         8.17829
           13098         42.1065         42.5175         5.14751         7.24752
           13099         43.7039         43.9815         5.16512         7.66273
           13100         41.3518         42.2410         5.65392         6.64643
           13101         42.9538         43.7171         5.70155         7.08504
           13102         40.6114         41.9842         6.15612         5.97706
           13103         42.2102         43.4695         6.24006         6.43991
           13104         39.9002         41.7515         6.64579         5.23269
           13105         41.4860         43.2427         6.77360         5.72091
           13106         39.2366         41.5482         7.11348         4.40494
           13107         40.7972         43.0410         7.29409         4.92018
           13108         38.6432         41.3797         7.54882         3.48340
           13109         40.1638         42.8695         7.79266         4.02804
           13110         38.1485         41.2522         7.94087         2.45525
           13111         39.6105         42.7334         8.25984         3.03276
           13112         37.7875         41.1715         8.27865         1.30491
           13113         39.1682         42.6379         8.68607         1.92007
           13114         37.6042         41.1434         8.55143     12.5643E-03
           13115         38.8753         42.5882         9.06218     673.135E-03
           13116         57.9640         61.5029         17.4651         10.7447
           13117         57.4278         61.1498         17.8676         10.5198
           13118         57.3880         61.1312         18.3469         10.6665
           13119         58.5567         61.8840         16.5036         10.7734
           13120         57.9962         61.5177         16.9706         10.5691
           13121         59.1485         62.2632         15.4818         10.7409
           13122         58.5733         61.8892         16.0091         10.5682
           13123         59.7228         62.6283         14.4215         10.6414
           13124         59.1444         62.2542         15.0012         10.5092
           13125         60.2641         62.9673         13.3459         10.4742
           13126         59.6949         62.6017         13.9668         10.3888
           13127         60.7601         63.2695         12.2767         10.2434
           13128         60.2120         62.9215         12.9259         10.2080
           13129         61.2023         63.5272         11.2329         9.95695
           13130         60.6857         63.2051         11.8972         9.97139
           13131         61.5856         63.7354         10.2297         9.62498
           13132         61.1090         63.4461         10.8964         9.68672
           13133         61.9085         63.8921         9.27809         9.25879
           13134         61.4780         63.6408         9.93613         9.36325
           13135         62.1723         63.9977         8.38525         8.86971
           13136         61.7918         63.7879         9.02548         9.01103
           13137         62.3801         64.0546         7.55482         8.46824
           13138         62.0516         63.8879         8.17016         8.64000
           13139         62.5366         64.0667         6.78772         8.06366
           13140         62.2600         63.9434         7.37309         8.25935
           13141         62.6468         64.0387         6.08279         7.66375
           13142         62.4213         63.9577         6.63486         7.87720
           13143         62.7163         63.9755         5.43741         7.27481
           13144         62.5397         63.9350         5.95433         7.50040
           13145         62.7505         63.8821         4.84805         6.90168
           13146         62.6203         63.8797         5.32914         7.13449
           13147         62.7544         63.7633         4.31062         6.54799
           13148         62.6676         63.7963         4.75611         6.78382
           13149         62.7327         63.6236         3.82087         6.21625
           13150         62.6863         63.6891         4.23161         6.45165
           13151         62.6896         63.4669         3.37451         5.90812
           13152         62.6804         63.5619         3.75179         6.14028
           13153         62.6286         63.2966         2.96742         5.62454
           13154         62.6537         63.4184         3.31282         5.85126
           13155         62.5530         63.1157         2.59570         5.36592
           13156         62.6096         63.2617         2.91096         5.58551
           13157         62.4654         62.9266         2.25574         5.13223
           13158         62.5509         63.0945         2.54266         5.34345
           13159         62.3681         62.7316         1.94426         4.92317
           13160         62.4801         62.9192         2.20464         5.12512
           13161         62.2630         62.5322         1.65825         4.73817
           13162         62.3995         62.7376         1.89386         4.93028
           13163         62.1518         62.3299         1.39503         4.57654
           13164         62.3108         62.5514         1.60756         4.75848
           13165         62.0356         62.1256         1.15219         4.43749
           13166         62.2155         62.3618         1.34324         4.60911
           13167         61.9156         61.9203     927.586E-03         4.32017
           13168         62.1149         62.1700         1.09865         4.48148
           13169         61.7926         61.7146     719.310E-03         4.22369
           13170         62.0101         61.9767     871.780E-03         4.37482
           13171         61.6674         61.5088     525.673E-03         4.14716
           13172         61.9020         61.7825     660.840E-03         4.28833
           13173         61.5404         61.3033     345.180E-03         4.08970
           13174         61.7912         61.5879     464.230E-03         4.22121
           13175         61.4122         61.0982     176.508E-03         4.05046
           13176         61.6784         61.3933     280.532E-03         4.17265
           13177         61.2829         60.8936     18.4948E-03         4.02860
           13178         61.5639         61.1987     108.490E-03         4.14185
           13179         61.1530         60.6896    -129.888E-03         4.02333
           13180         61.4482         61.0043    -53.0072E-03         4.12804
           13181         61.0224         60.4859    -269.543E-03         4.03387
           13182         61.3316         60.8102    -204.942E-03         4.13047
           13183         60.8915         60.2826    -401.262E-03         4.05950
           13184         61.2143         60.6163    -348.179E-03         4.14841
           13185         60.7602         60.0793    -525.738E-03         4.09952
           13186         61.0964         60.4225    -483.477E-03         4.18118
           13187         60.6286         59.8760    -643.579E-03         4.15326
           13188         60.9781         60.2287    -611.504E-03         4.22810
           13189         60.4968         59.6724    -755.310E-03         4.22009
           13190         60.8595         60.0347    -732.840E-03         4.28853
           13191         60.3647         59.4682    -861.386E-03         4.29941
           13192         60.7406         59.8404    -847.989E-03         4.36187
           13193         60.2322         59.2633    -962.198E-03         4.39063
           13194         60.6214         59.6456    -957.388E-03         4.44753
           13195         60.0994         59.0573        -1.05808         4.49318
           13196         60.5020         59.4500        -1.06141         4.54493
           13197         59.9662         58.8501        -1.14930         4.60654
           13198         60.3824         59.2534        -1.16037         4.65353
           13199         59.8326         58.6413        -1.23610         4.73018
           13200         60.2626         59.0557        -1.25452         4.77279
           13201         59.6984         58.4307        -1.31866         4.86359
           13202         60.1424         58.8566        -1.34409         4.90220
           13203         59.5636         58.2181        -1.39711         5.00626
           13204         60.0220         58.6560        -1.42922         5.04124
           13205         59.4282         58.0033        -1.47155         5.15770
           13206         59.9012         58.4535        -1.51006         5.18942
           13207         59.2920         57.7860        -1.54206         5.31743
           13208         59.7800         58.2491        -1.58668         5.34622
           13209         59.1549         57.5661        -1.60864         5.48495
           13210         59.6582         58.0425        -1.65912         5.51116
           13211         59.0169         57.3434        -1.67129         5.65976
           13212         59.5359         57.8336        -1.72738         5.68374
           13213         58.8778         57.1176        -1.72996         5.84138
           13214         59.4130         57.6222        -1.79144         5.86346
           13215         58.7375         56.8887        -1.78457         6.02929
           13216         59.2892         57.4082        -1.85123         6.04979
           13217         58.5959         56.6566        -1.83501         6.22297
           13218         59.1645         57.1915        -1.90665         6.24222
           13219         58.4528         56.4210        -1.88113         6.42189
           13220         59.0388         56.9719        -1.95755         6.44022
           13221         58.3080         56.1819        -1.92276         6.62550
           13222         58.9119         56.7494        -2.00377         6.64323
           13223         58.1614         55.9393        -1.95967         6.83322
           13224         58.7836         56.5238        -2.04509         6.85067
           13225         58.0127         55.6930        -1.99162         7.04446
           13226         58.6537         56.2952        -2.08128         7.06196
           13227         57.8617         55.4431        -2.01832         7.25858
           13228         58.5219         56.0634        -2.11205         7.27647
           13229         57.7080         55.1895        -2.03946         7.47494
           13230         58.3880         55.8285        -2.13709         7.49355
           13231         57.5515         54.9322        -2.05469         7.69285
           13232         58.2517         55.5905        -2.15604         7.71252
           13233         57.3916         54.6712        -2.06360         7.91157
           13234         58.1125         55.3494        -2.16851         7.93265
           13235         57.2281         54.4067        -2.06577         8.13035
           13236         57.9701         55.1051        -2.17408         8.15320
           13237         57.0604         54.1386        -2.06073         8.34837
           13238         57.8240         54.8579        -2.17227         8.37336
           13239         56.8880         53.8671        -2.04798         8.56477
           13240         57.6736         54.6076        -2.16256         8.59229
           13241         56.7103         53.5922        -2.02694         8.77866
           13242         57.5185         54.3546        -2.14440         8.80911
           13243         56.5267         53.3141        -1.99704         8.98907
           13244         57.3578         54.0987        -2.11719         9.02286
           13245         56.3364         53.0330        -1.95762         9.19498
           13246         57.1910         53.8402        -2.08028         9.23256
           13247         56.1386         52.7489        -1.90802         9.39534
           13248         57.0172         53.5791        -2.03298         9.43715
           13249         55.9325         52.4621        -1.84748         9.58899
           13250         56.8354         53.3157        -1.97456         9.63552
           13251         55.7171         52.1727        -1.77525         9.77475
           13252         56.6448         53.0501        -1.90423         9.82650
           13253         55.4913         51.8810        -1.69050         9.95135
           13254         56.4443         52.7824        -1.82115         10.0088
           13255         55.2540         51.5871        -1.59236         10.1175
           13256         56.2326         52.5129        -1.72445         10.1813
           13257         55.0039         51.2914        -1.47993         10.2717
           13258         56.0087         52.2417        -1.61321         10.3424
           13259         54.7396         50.9939        -1.35224         10.4125
           13260         55.7710         51.9690        -1.48646         10.4907
           13261         54.4599         50.6951        -1.20832         10.5385
           13262         55.5183         51.6951        -1.34320         10.6249
           13263         54.1632         50.3950        -1.04714         10.6479
           13264         55.2491         51.4200        -1.18238         10.7431
           13265         53.8480         50.0940    -867.650E-03         10.7391
           13266         54.9617         51.1441        -1.00292         10.8439
           13267         53.5127         49.7923    -668.786E-03         10.8103
           13268         54.6546         50.8675    -803.747E-03         10.9254
           13269         53.1556         49.4902    -449.474E-03         10.8596
           13270         54.3262         50.5904    -583.741E-03         10.9859
           13271         52.7751         49.1878    -208.649E-03         10.8853
           13272         53.9747         50.3130    -341.804E-03         11.0235
           13273         52.3697         48.8855     54.7282E-03         10.8852
           13274         53.5986         50.0356    -76.8484E-03         11.0363
           13275         51.9378         48.5836     341.642E-03         10.8574
           13276         53.1962         49.7582     212.170E-03         11.0222
           13277         51.4779         48.2822     653.000E-03         10.7998
           13278         52.7661         49.4812     526.228E-03         10.9793
           13279         50.9889         47.9817     989.597E-03         10.7102
           13280         52.3069         49.2048     866.210E-03         10.9052
           13281         50.4697         47.6825         1.35207         10.5864
           13282         51.8175         48.9293         1.23286         10.7978
           13283         49.9196         47.3848         1.74084         10.4260
           13284         51.2970         48.6549         1.62675         10.6549
           13285         49.3385         47.0893         2.15608         10.2267
           13286         50.7449         48.3822         2.04821         10.4741
           13287         48.7265         46.7965         2.59759         9.98612
           13288         50.1613         48.1115         2.49728         10.2528
           13289         48.0847         46.5072         3.06479         9.70152
           13290         49.5467         47.8435         2.97362         9.98842
           13291         47.4147         46.2223         3.55655         9.37021
           13292         48.9024         47.5790         3.47648         9.67826
           13293         46.7194         45.9429         4.07118         8.98919
           13294         48.2306         47.3192         4.00454         9.31927
           13295         46.0025         45.6707         4.60626         8.55516
           13296         47.5345         47.0651         4.55592         8.90817
           13297         45.2694         45.4075         5.15858         8.06441
           13298         46.8183         46.8186         5.12801         8.44124
           13299         44.5269         45.1557         5.72404         7.51263
           13300         46.0882         46.5817         5.71746         7.91426
           13301         43.7839         44.9181         6.29763         6.89477
           13302         45.3515         46.3567         6.32008         7.32230
           13303         43.0515         44.6980         6.87335         6.20476
           13304         44.6179         46.1466         6.93089         6.65955
           13305         42.3435         44.4994         7.44434         5.43530
           13306         43.8996         45.9548         7.54407         5.91907
           13307         41.6775         44.3266         8.00290         4.57749
           13308         43.2117         45.7850         8.15313         5.09253
           13309         41.0749         44.1842         8.54080         3.62061
           13310         42.5731         45.6413         8.75104         4.16995
           13311         40.5627         44.0770         9.04956         2.55171
           13312         42.0073         45.5279         9.33053         3.13947
           13313         40.1747         44.0097         9.52093         1.35549
           13314         41.5440         45.4488         9.88445         1.98698
           13315         39.9527         43.9865         9.94724     12.8886E-03
           13316         41.2201         45.4079         10.4062     696.198E-03
           13317         57.4861         61.1884         17.4136         10.3749
           13318         56.9945         60.8701         17.8025         10.1639
           13319         56.9395         60.8320         18.2559         10.3093
           13320         58.0495         61.5530         16.5035         10.3996
           13321         57.5363         61.2235         16.9466         10.2055
           13322         58.6159         61.9169         15.5408         10.3738
           13323         58.0885         61.5805         16.0352         10.2053
           13324         59.1715         62.2702         14.5431         10.2921
           13325         58.6390         61.9328         15.0827         10.1568
           13326         59.7034         62.6032         13.5288         10.1532
           13327         59.1758         62.2717         14.1051         10.0566
           13328         60.2009         62.9068         12.5159         9.95938
           13329         59.6879         62.5885         13.1187         9.90474
           13330         60.6555         63.1740         11.5205         9.71618
           13331         60.1663         62.8758         12.1391         9.70430
           13332         61.0619         63.3998         10.5561         9.43115
           13333         60.6041         63.1278         11.1801         9.46071
           13334         61.4172         63.5815         9.63302         9.11312
           13335         60.9968         63.3406         10.2529         9.18110
           13336         61.7210         63.7185         8.75865         8.77131
           13337         61.3423         63.5122         9.36610         8.87345
           13338         61.9746         63.8117         7.93741         8.41462
           13339         61.6403         63.6423         8.52581         8.54596
           13340         62.1810         63.8637         7.17138         8.05123
           13341         61.8923         63.7321         7.73563         8.20651
           13342         62.3438         63.8778         6.46069         7.68829
           13343         62.1006         63.7838         6.99715         7.86231
           13344         62.4670         63.8577         5.80405         7.33179
           13345         62.2684         63.8005         6.31035         7.51967
           13346         62.5550         63.8075         5.19914         6.98662
           13347         62.3994         63.7855         5.67399         7.18390
           13348         62.6120         63.7313         4.64298         6.65658
           13349         62.4975         63.7425         5.08596         6.85935
           13350         62.6421         63.6329         4.13223         6.34455
           13351         62.5663         63.6752         4.54356         6.54946
           13352         62.6490         63.5159         3.66337         6.05256
           13353         62.6095         63.5869         4.04378         6.25680
           13354         62.6362         63.3834         3.23291         5.78200
           13355         62.6305         63.4809         3.58344         5.98328
           13356         62.6065         63.2384         2.83743         5.53370
           13357         62.6324         63.3601         3.15937         5.73017
           13358         62.5628         63.0833         2.47371         5.30804
           13359         62.6179         63.2272         2.76846         5.49827
           13360         62.5072         62.9202         2.13871         5.10508
           13361         62.5894         63.0844         2.40777         5.28798
           13362         62.4418         62.7510         1.82966         4.92460
           13363         62.5492         62.9337         2.07451         5.09938
           13364         62.3683         62.5770         1.54402         4.76622
           13365         62.4991         62.7767         1.76612         4.93232
           13366         62.2881         62.3996         1.27946         4.62939
           13367         62.4408         62.6148         1.48024         4.78648
           13368         62.2024         62.2197         1.03390         4.51348
           13369         62.3756         62.4493         1.21471         4.66138
           13370         62.1123         62.0380     805.477E-03         4.41781
           13371         62.3047         62.2810     967.602E-03         4.55647
           13372         62.0187         61.8552     592.501E-03         4.34166
           13373         62.2292         62.1107     737.141E-03         4.47113
           13374         61.9222         61.6718     393.477E-03         4.28426
           13375         62.1499         61.9390     521.752E-03         4.40470
           13376         61.8234         61.4880     207.071E-03         4.24489
           13377         62.0675         61.7665     320.020E-03         4.35650
           13378         61.7229         61.3040     32.0969E-03         4.22281
           13379         61.9826         61.5933     130.682E-03         4.32584
           13380         61.6209         61.1201    -132.497E-03         4.21729
           13381         61.8957         61.4198    -47.3889E-03         4.31204
           13382         61.5179         60.9362    -287.642E-03         4.22762
           13383         61.8074         61.2461    -215.193E-03         4.31443
           13384         61.4140         60.7524    -434.158E-03         4.25313
           13385         61.7178         61.0723    -373.617E-03         4.33232
           13386         61.3095         60.5685    -572.767E-03         4.29315
           13387         61.6273         60.8984    -523.443E-03         4.36509
           13388         61.2046         60.3846    -704.103E-03         4.34706
           13389         61.5362         60.7244    -665.363E-03         4.41211
           13390         61.0993         60.2004    -828.718E-03         4.41424
           13391         61.4446         60.5503    -799.978E-03         4.47276
           13392         60.9938         60.0159    -947.090E-03         4.49409
           13393         61.3526         60.3760    -927.815E-03         4.54645
           13394         60.8881         59.8309        -1.05963         4.58606
           13395         61.2605         60.2013        -1.04933         4.63262
           13396         60.7822         59.6452        -1.16669         4.68957
           13397         61.1683         60.0262        -1.16491         4.73069
           13398         60.6763         59.4587        -1.26857         4.80411
           13399         61.0761         59.8505        -1.27489         4.84015
           13400         60.5702         59.2711        -1.36550         4.92913
           13401         60.9839         59.6740        -1.37954         4.96044
           13402         60.4640         59.0823        -1.45768         5.06413
           13403         60.8917         59.4967        -1.47909         5.09106
           13404         60.3577         58.8921        -1.54525         5.20860
           13405         60.7997         59.3184        -1.57370         5.23148
           13406         60.2513         58.7003        -1.62832         5.36203
           13407         60.7077         59.1389        -1.66351         5.38121
           13408         60.1446         58.5069        -1.70695         5.52392
           13409         60.6158         58.9581        -1.74859         5.53972
           13410         60.0377         58.3116        -1.78116         5.69377
           13411         60.5239         58.7759        -1.82899         5.70653
           13412         59.9305         58.1142        -1.85094         5.87108
           13413         60.4320         58.5921        -1.90472         5.88111
           13414         59.8228         57.9147        -1.91623         6.05533
           13415         60.3400         58.4067        -1.97572         6.06295
           13416         59.7146         57.7130        -1.97694         6.24600
           13417         60.2478         58.2195        -2.04193         6.25154
           13418         59.6057         57.5089        -2.03294         6.44255
           13419         60.1554         58.0304        -2.10323         6.44632
           13420         59.4960         57.3024        -2.08407         6.64443
           13421         60.0625         57.8394        -2.15946         6.64675
           13422         59.3853         57.0933        -2.13013         6.85107
           13423         59.9689         57.6464        -2.21044         6.85226
           13424         59.2734         56.8817        -2.17089         7.06188
           13425         59.8746         57.4513        -2.25593         7.06227
           13426         59.1601         56.6675        -2.20606         7.27625
           13427         59.7793         57.2541        -2.29567         7.27616
           13428         59.0451         56.4507        -2.23534         7.49352
           13429         59.6827         57.0548        -2.32935         7.49330
           13430         58.9280         56.2312        -2.25837         7.71304
           13431         59.5844         56.8533        -2.35662         7.71301
           13432         58.8085         56.0091        -2.27477         7.93408
           13433         59.4842         56.6497        -2.37710         7.93460
           13434         58.6863         55.7843        -2.28411         8.15591
           13435         59.3817         56.4440        -2.39036         8.15733
           13436         58.5608         55.5570        -2.28590         8.37773
           13437         59.2763         56.2362        -2.39592         8.38043
           13438         58.4315         55.3272        -2.27965         8.59873
           13439         59.1676         56.0264        -2.39328         8.60310
           13440         58.2978         55.0950        -2.26478         8.81803
           13441         59.0550         55.8146        -2.38186         8.82446
           13442         58.1592         54.8604        -2.24070         9.03470
           13443         58.9378         55.6009        -2.36107         9.04361
           13444         58.0147         54.6236        -2.20675         9.24777
           13445         58.8154         55.3853        -2.33026         9.25961
           13446         57.8638         54.3846        -2.16225         9.45622
           13447         58.6868         55.1680        -2.28871         9.47143
           13448         57.7053         54.1436        -2.10644         9.65896
           13449         58.5512         54.9491        -2.23570         9.67803
           13450         57.5385         53.9008        -2.03853         9.85484
           13451         58.4077         54.7287        -2.17041         9.87828
           13452         57.3622         53.6562        -1.95769         10.0426
           13453         58.2553         54.5068        -2.09200         10.0710
           13454         57.1753         53.4100        -1.86303         10.2211
           13455         58.0926         54.2837        -1.99957         10.2549
           13456         56.9765         53.1624        -1.75361         10.3889
           13457         57.9186         54.0594        -1.89218         10.4288
           13458         56.7646         52.9135        -1.62845         10.5446
           13459         57.7320         53.8341        -1.76884         10.5912
           13460         56.5381         52.6634        -1.48653         10.6868
           13461         57.5312         53.6078        -1.62852         10.7406
           13462         56.2955         52.4125        -1.32680         10.8138
           13463         57.3149         53.3808        -1.47013         10.8757
           13464         56.0353         52.1607        -1.14814         10.9241
           13465         57.0814         53.1532        -1.29256         10.9947
           13466         55.7558         51.9083    -949.451E-03         11.0160
           13467         56.8292         52.9249        -1.09467         11.0961
           13468         55.4555         51.6555    -729.585E-03         11.0876
           13469         56.5566         52.6963    -875.289E-03         11.1782
           13470         55.1326         51.4023    -487.402E-03         11.1373
           13471         56.2618         52.4674    -633.247E-03         11.2390
           13472         54.7855         51.1490    -221.766E-03         11.1630
           13473         55.9433         52.2382    -367.366E-03         11.2768
           13474         54.4124         50.8956     68.4310E-03         11.1628
           13475         55.5993         52.0090    -76.4913E-03         11.2895
           13476         54.0120         50.6424     384.240E-03         11.1347
           13477         55.2282         51.7798     240.495E-03         11.2753
           13478         53.5826         50.3896     726.638E-03         11.0765
           13479         54.8285         51.5509     584.642E-03         11.2319
           13480         53.1231         50.1374         1.09649         10.9860
           13481         54.3988         51.3222     956.908E-03         11.1573
           13482         52.6324         49.8860         1.49451         10.8610
           13483         53.9380         51.0941         1.35812         11.0491
           13484         52.1099         49.6357         1.92120         10.6990
           13485         53.4452         50.8667         1.78894         10.9051
           13486         51.5552         49.3869         2.37684         10.4977
           13487         52.9199         50.6405         2.24981         10.7227
           13488         50.9686         49.1403         2.86135         10.2544
           13489         52.3620         50.4157         2.74089         10.4993
           13490         50.3510         48.8963         3.37432         9.96628
           13491         51.7721         50.1931         3.26203         10.2322
           13492         49.7040         48.6560         3.91484         9.63044
           13493         51.1513         49.9733         3.81266         9.91844
           13494         49.0301         48.4203         4.48150         9.24359
           13495         50.5017         49.7572         4.39177         9.55474
           13496         48.3329         48.1908         5.07228         8.80212
           13497         49.8261         49.5460         4.99784         9.13751
           13498         47.6175         47.9690         5.68449         8.30190
           13499         49.1288         49.3412         5.62874         8.66273
           13500         46.8902         47.7572         6.31473         7.73821
           13501         48.4151         49.1446         6.28174         8.12580
           13502         46.1594         47.5578         6.95885         7.10554
           13503         47.6923         48.9583         6.95347         7.52139
           13504         45.4355         47.3737         7.61198         6.39737
           13505         46.9693         48.7849         7.63992         6.84329
           13506         44.7316         47.2082         8.26862         5.60596
           13507         46.2576         48.6271         8.33652         6.08419
           13508         44.0643         47.0648         8.92274         4.72212
           13509         45.5715         48.4880         9.03822         5.23547
           13510         43.4541         46.9474         9.56802         3.73493
           13511         44.9291         48.3709         9.73972         4.28700
           13512         42.9269         46.8596         10.1982         2.63154
           13513         44.3530         48.2791         10.4357         3.22692
           13514         42.5148         46.8048         10.8073         1.39701
           13515         43.8715         48.2155         11.1210         2.04143
           13516         42.2583         46.7861         11.3903     13.0993E-03
           13517         43.5203         48.1829         11.7915     714.820E-03
           13518         57.0660         60.9253         17.3703         10.0199
           13519         56.6121         60.6365         17.7481         9.82073
           13520         56.5436         60.5816         18.1799         9.96508
           13521         57.6050         61.2761         16.5026         10.0408
           13522         57.1318         60.9778         16.9264         9.85537
           13523         58.1496         61.6270         15.5892         10.0196
           13524         57.6629         61.3225         16.0567         9.85527
           13525         58.6884         61.9698         14.6440         9.95171
           13526         58.1955         61.6639         15.1505         9.81470
           13527         59.2107         62.2966         13.6821         9.83524
           13528         58.7196         61.9947         14.2211         9.73049
           13529         59.7070         62.5996         12.7183         9.67146
           13530         59.2259         62.3077         13.2817         9.60209
           13531         60.1694         62.8728         11.7664         9.46410
           13532         59.7061         62.5967         12.3455         9.43138
           13533         60.5924         63.1111         10.8381         9.21879
           13534         60.1538         62.8562         11.4243         9.22227
           13535         60.9724         63.3118         9.94300         8.94241
           13536         60.5642         63.0824         10.5282         8.98018
           13537         61.3081         63.4734         9.08825         8.64241
           13538         60.9346         63.2731         9.66507         8.71142
           13539         61.5994         63.5961         8.27868         8.32625
           13540         61.2637         63.4272         8.84104         8.42273
           13541         61.8478         63.6811         7.51707         8.00103
           13542         61.5517         63.5451         8.06005         8.12079
           13543         62.0556         63.7309         6.80450         7.67317
           13544         61.8000         63.6282         7.32436         7.81189
           13545         62.2259         63.7481         6.14067         7.34824
           13546         62.0106         63.6786         6.63477         7.50173
           13547         62.3620         63.7361         5.52426         7.03096
           13548         62.1862         63.6988         5.99089         7.19529
           13549         62.4672         63.6981         4.95323         6.72517
           13550         62.3298         63.6917         5.39149         6.89676
           13551         62.5451         63.6374         4.42504         6.43391
           13552         62.4443         63.6603         4.83467         6.60961
           13553         62.5988         63.5571         3.93691         6.15947
           13554         62.5329         63.6077         4.31814         6.33655
           13555         62.6314         63.4603         3.48592         5.90354
           13556         62.5986         63.5365         3.83936         6.07971
           13557         62.6458         63.3495         3.06915         5.66727
           13558         62.6440         63.4497         3.39568         5.84061
           13559         62.6445         63.2271         2.68376         5.45137
           13560         62.6718         63.3494         2.98443         5.62035
           13561         62.6297         63.0953         2.32703         5.25622
           13562         62.6843         63.2380         2.60302         5.41960
           13563         62.6035         62.9557         1.99642         5.08191
           13564         62.6836         63.1173         2.24895         5.23873
           13565         62.5675         62.8100         1.68956         4.92829
           13566         62.6716         62.9891         1.91986         5.07785
           13567         62.5234         62.6595         1.40426         4.79507
           13568         62.6500         62.8548         1.61358         4.93687
           13569         62.4724         62.5053         1.13852         4.68185
           13570         62.6202         62.7156         1.32807         4.81554
           13571         62.4157         62.3482     890.542E-03         4.58812
           13572         62.5834         62.5725         1.06147         4.71349
           13573         62.3543         62.1890     658.674E-03         4.51331
           13574         62.5409         62.4266     812.077E-03         4.63029
           13575         62.2890         62.0283     441.440E-03         4.45681
           13576         62.4935         62.2783     578.364E-03         4.56540
           13577         62.2205         61.8666     237.513E-03         4.41800
           13578         62.4421         62.1284     358.935E-03         4.51830
           13579         62.1494         61.7040     45.7040E-03         4.39624
           13580         62.3874         61.9773     152.538E-03         4.48838
           13581         62.0763         61.5410    -135.048E-03         4.39089
           13582         62.3301         61.8253    -41.9519E-03         4.47507
           13583         62.0016         61.3778    -305.689E-03         4.40131
           13584         62.2707         61.6727    -225.540E-03         4.47776
           13585         61.9257         61.2143    -467.055E-03         4.42688
           13586         62.2096         61.5198    -399.123E-03         4.49586
           13587         61.8488         61.0506    -619.888E-03         4.46699
           13588         62.1472         61.3665    -563.496E-03         4.52878
           13589         61.7712         60.8869    -764.841E-03         4.52104
           13590         62.0839         61.2131    -719.363E-03         4.57592
           13591         61.6932         60.7230    -902.482E-03         4.58844
           13592         62.0200         61.0595    -867.341E-03         4.63672
           13593         61.6150         60.5588        -1.03331         4.66863
           13594         61.9556         60.9059        -1.00797         4.71062
           13595         61.5366         60.3944        -1.15775         4.76105
           13596         61.8911         60.7520        -1.14173         4.79707
           13597         61.4582         60.2297        -1.27617         4.86517
           13598         61.8265         60.5979        -1.26901         4.89552
           13599         61.3800         60.0644        -1.38888         4.98043
           13600         61.7621         60.4436        -1.39015         5.00545
           13601         61.3019         59.8986        -1.49612         5.10634
           13602         61.6979         60.2890        -1.50544         5.12632
           13603         61.2240         59.7320        -1.59809         5.24236
           13604         61.6340         60.1339        -1.61511         5.25764
           13605         61.1463         59.5647        -1.69495         5.38800
           13606         61.5705         59.9783        -1.71934         5.39888
           13607         61.0690         59.3964        -1.78681         5.54274
           13608         61.5074         59.8222        -1.81826         5.54953
           13609         60.9919         59.2271        -1.87372         5.70607
           13610         61.4448         59.6653        -1.91194         5.70909
           13611         60.9150         59.0566        -1.95570         5.87749
           13612         61.3827         59.5077        -2.00043         5.87704
           13613         60.8383         58.8848        -2.03274         6.05648
           13614         61.3209         59.3493        -2.08372         6.05286
           13615         60.7617         58.7118        -2.10476         6.24251
           13616         61.2596         59.1899        -2.16177         6.23604
           13617         60.6851         58.5373        -2.17167         6.43506
           13618         61.1986         59.0296        -2.23450         6.42603
           13619         60.6084         58.3613        -2.23332         6.63356
           13620         61.1377         58.8682        -2.30176         6.62230
           13621         60.5315         58.1838        -2.28953         6.83747
           13622         61.0770         58.7057        -2.36339         6.82428
           13623         60.4541         58.0046        -2.34009         7.04619
           13624         61.0161         58.5420        -2.41918         7.03139
           13625         60.3760         57.8238        -2.38473         7.25911
           13626         60.9549         58.3772        -2.46888         7.24302
           13627         60.2970         57.6414        -2.42315         7.47562
           13628         60.8932         58.2112        -2.51220         7.45857
           13629         60.2169         57.4573        -2.45501         7.69505
           13630         60.8306         58.0440        -2.54880         7.67737
           13631         60.1351         57.2715        -2.47992         7.91671
           13632         60.7669         57.8755        -2.57830         7.89875
           13633         60.0514         57.0841        -2.49747         8.13988
           13634         60.7016         57.7059        -2.60029         8.12199
           13635         59.9653         56.8950        -2.50718         8.36380
           13636         60.6343         57.5351        -2.61429         8.34635
           13637         59.8763         56.7044        -2.50855         8.58768
           13638         60.5646         57.3632        -2.61981         8.57105
           13639         59.7837         56.5121        -2.50100         8.81067
           13640         60.4917         57.1901        -2.61627         8.79526
           13641         59.6871         56.3184        -2.48394         9.03189
           13642         60.4152         57.0160        -2.60308         9.01810
           13643         59.5856         56.1233        -2.45671         9.25040
           13644         60.3342         56.8408        -2.57958         9.23868
           13645         59.4785         55.9268        -2.41861         9.46523
           13646         60.2481         56.6647        -2.54506         9.45602
           13647         59.3648         55.7290        -2.36889         9.67532
           13648         60.1559         56.4877        -2.49879         9.66911
           13649         59.2437         55.5301        -2.30675         9.87959
           13650         60.0567         56.3099        -2.43994         9.87688
           13651         59.1141         55.3300        -2.23133         10.0769
           13652         59.9496         56.1314        -2.36766         10.0782
           13653         58.9749         55.1290        -2.14173         10.2660
           13654         59.8332         55.9522        -2.28106         10.2719
           13655         58.8248         54.9271        -2.03700         10.4456
           13656         59.7066         55.7724        -2.17916         10.4567
           13657         58.6625         54.7244        -1.91614         10.6145
           13658         59.5682         55.5921        -2.06095         10.6314
           13659         58.4867         54.5210        -1.77810         10.7711
           13660         59.4169         55.4113        -1.92539         10.7944
           13661         58.2959         54.3170        -1.62178         10.9140
           13662         59.2511         55.2302        -1.77136         10.9445
           13663         58.0884         54.1125        -1.44606         11.0417
           13664         59.0692         55.0487        -1.59772         11.0801
           13665         57.8628         53.9076        -1.24978         11.1526
           13666         58.8697         54.8670        -1.40328         11.1995
           13667         57.6174         53.7024        -1.03172         11.2448
           13668         58.6509         54.6851        -1.18683         11.3013
           13669         57.3503         53.4969    -790.701E-03         11.3168
           13670         58.4111         54.5031    -947.137E-03         11.3835
           13671         57.0600         53.2913    -525.488E-03         11.3667
           13672         58.1485         54.3209    -682.944E-03         11.4445
           13673         56.7447         53.0855    -234.881E-03         11.3925
           13674         57.8615         54.1386    -393.005E-03         11.4824
           13675         56.4028         52.8797     82.3050E-03         11.3922
           13676         57.5483         53.9563    -76.0890E-03         11.4952
           13677         56.0326         52.6740     427.195E-03         11.3639
           13678         57.2073         53.7739     269.000E-03         11.4809
           13679         55.6327         52.4685     800.847E-03         11.3054
           13680         56.8370         53.5917     643.393E-03         11.4374
           13681         55.2019         52.2632         1.20421         11.2144
           13682         56.4359         53.4095         1.04814         11.3624
           13683         54.7390         52.0585         1.63809         11.0886
           13684         56.0030         53.2277         1.48416         11.2538
           13685         54.2435         51.8545         2.10310         10.9255
           13686         55.5372         53.0462         1.95223         11.1090
           13687         53.7149         51.6515         2.59965         10.7227
           13688         55.0382         52.8655         2.45293         10.9255
           13689         53.1534         51.4500         3.12784         10.4773
           13690         54.5057         52.6858         2.98658         10.7006
           13691         52.5598         51.2506         3.68743         10.1864
           13692         53.9402         52.5076         3.55322         10.4315
           13693         51.9356         51.0541         4.27781         9.84687
           13694         53.3428         52.3315         4.15256         10.1148
           13695         51.2831         50.8614         4.89789         9.45515
           13696         52.7152         52.1584         4.78390         9.74726
           13697         50.6058         50.6738         5.54609         9.00734
           13698         52.0602         51.9892         5.44612         9.32495
           13699         49.9082         50.4927         6.22029         8.49900
           13700         51.3817         51.8253         6.13762         8.84357
           13701         49.1963         50.3200         6.91779         7.92506
           13702         50.6847         51.6682         6.85632         8.29821
           13703         48.4780         50.1579         7.63534         7.27963
           13704         49.9759         51.5196         7.59965         7.68325
           13705         47.7632         50.0087         8.36916         6.55588
           13706         49.2639         51.3817         8.36457         6.99217
           13707         47.0642         49.8752         9.11504         5.74578
           13708         48.5595         51.2568         9.14768         6.21741
           13709         46.3969         49.7601         9.86848         4.83996
           13710         47.8764         51.1472         9.94530         5.35019
           13711         45.7809         49.6664         10.6249         3.82747
           13712         47.2318         51.0556         10.7537         4.38034
           13713         45.2410         49.5969         11.3799         2.69566
           13714         46.6475         50.9842         11.5692         3.29614
           13715         44.8083         49.5540         12.1297         1.43004
           13716         46.1508         50.9353         12.3886         2.08416
           13717         44.5217         49.5394         12.8714     13.2131E-03
           13718         45.7761         50.9105         13.2097     729.306E-03
           13719         56.6952         60.7059         17.3342         9.67737
           13720         56.2735         60.4421         17.7029         9.48811
           13721         56.1931         60.3729         18.1165         9.63178
           13722         57.2139         61.0452         16.5019         9.69462
           13723         56.7747         60.7733         16.9097         9.51669
           13724         57.7399         61.3850         15.6295         9.67677
           13725         57.2881         61.1076         16.0748         9.51620
           13726         58.2640         61.7186         14.7287         9.61957
           13727         57.8053         61.4396         15.2077         9.48173
           13728         58.7770         62.0393         13.8115         9.52112
           13729         58.3180         61.7632         14.3192         9.41030
           13730         59.2705         62.3408         12.8905         9.38189
           13731         58.8182         62.0724         13.4204         9.30102
           13732         59.7375         62.6174         11.9773         9.20437
           13733         59.2984         62.3616         12.5223         9.15496
           13734         60.1725         62.8648         11.0821         8.99273
           13735         59.7528         62.6262         11.6351         8.97490
           13736         60.5717         63.0799         10.2137         8.75232
           13737         60.1766         62.8624         10.7677         8.76494
           13738         60.9328         63.2610         9.37879         8.48913
           13739         60.5665         63.0679         9.92738         8.53008
           13740         61.2550         63.4075         8.58228         8.20937
           13741         60.9209         63.2414         9.11997         8.27580
           13742         61.5387         63.5201         7.82739         7.91913
           13743         61.2390         63.3825         8.34956         8.00773
           13744         61.7853         63.6001         7.11582         7.62407
           13745         61.5213         63.4920         7.61879         7.73132
           13746         61.9967         63.6496         6.44802         7.32930
           13747         61.7689         63.5712         6.92903         7.45164
           13748         62.1755         63.6711         5.82346         7.03924
           13749         61.9838         63.6220         6.28055         7.17324
           13750         62.3242         63.6672         5.24085         6.75764
           13751         62.1680         63.6467         5.67278         6.90011
           13752         62.4458         63.6407         4.69838         6.48757
           13753         62.3240         63.6477         5.10453         6.63559
           13754         62.5429         63.5944         4.19390         6.23146
           13755         62.4544         63.6275         4.57411         6.38246
           13756         62.6184         63.5307         3.72504         5.99120
           13757         62.5615         63.5886         4.07956         6.14294
           13758         62.6746         63.4523         3.28935         5.76817
           13759         62.6480         63.5334         3.61869         5.91874
           13760         62.7140         63.3612         2.88438         5.56334
           13761         62.7160         63.4640         3.18928         5.71115
           13762         62.7388         63.2595         2.50773         5.37734
           13763         62.7679         63.3826         2.78908         5.52106
           13764         62.7508         63.1489         2.15710         5.21048
           13765         62.8055         63.2910         2.41587         5.34907
           13766         62.7519         63.0311         1.83032         5.06289
           13767         62.8307         63.1909         2.06755         5.19550
           13768         62.7435         62.9073         1.52536         4.93448
           13769         62.8451         63.0837         1.74209         5.06048
           13770         62.7271         62.7788         1.24034         4.82502
           13771         62.8503         62.9706         1.43762         4.94395
           13772         62.7040         62.6465     973.522E-03         4.73420
           13773         62.8476         62.8528         1.15239         4.84572
           13774         62.6750         62.5113     723.338E-03         4.66159
           13775         62.8380         62.7312     884.784E-03         4.76549
           13776         62.6413         62.3737     488.344E-03         4.60673
           13777         62.8228         62.6067     633.320E-03         4.70291
           13778         62.6035         62.2345     267.237E-03         4.56911
           13779         62.8027         62.4798     396.648E-03         4.65754
           13780         62.5625         62.0939     58.8432E-03         4.54819
           13781         62.7786         62.3511     173.545E-03         4.62891
           13782         62.5188         61.9525    -137.895E-03         4.54341
           13783         62.7512         62.2211    -37.0978E-03         4.61652
           13784         62.4730         61.8104    -323.925E-03         4.55422
           13785         62.7212         62.0902    -236.277E-03         4.61986
           13786         62.4256         61.6679    -500.089E-03         4.58004
           13787         62.6890         61.9586    -424.887E-03         4.63839
           13788         62.3769         61.5251    -667.136E-03         4.62033
           13789         62.6553         61.8265    -603.726E-03         4.67159
           13790         62.3273         61.3822    -825.731E-03         4.67451
           13791         62.6203         61.6942    -773.502E-03         4.71891
           13792         62.2771         61.2391    -976.454E-03         4.74205
           13793         62.5844         61.5617    -934.840E-03         4.77983
           13794         62.2266         61.0959        -1.11981         4.82240
           13795         62.5481         61.4292        -1.08829         4.85382
           13796         62.1760         60.9527        -1.25625         4.91502
           13797         62.5115         61.2966        -1.23433         4.94034
           13798         62.1255         60.8094        -1.38613         5.01940
           13799         62.4749         61.1641        -1.37336         5.03890
           13800         62.0752         60.6659        -1.50977         5.13501
           13801         62.4385         61.0316        -1.50575         5.14896
           13802         62.0252         60.5222        -1.62744         5.26133
           13803         62.4024         60.8991        -1.63176         5.27001
           13804         61.9758         60.3783        -1.73933         5.39787
           13805         62.3669         60.7667        -1.75165         5.40156
           13806         61.9269         60.2342        -1.84560         5.54410
           13807         62.3320         60.6342        -1.86558         5.54309
           13808         61.8786         60.0896        -1.94635         5.69953
           13809         62.2978         60.5016        -1.97369         5.69410
           13810         61.8309         59.9446        -2.04165         5.86364
           13811         62.2644         60.3689        -2.07605         5.85408
           13812         61.7838         59.7992        -2.13150         6.03591
           13813         62.2318         60.2361        -2.17271         6.02251
           13814         61.7374         59.6532        -2.21588         6.21583
           13815         62.1999         60.1030        -2.26365         6.19887
           13816         61.6915         59.5065        -2.29472         6.40286
           13817         62.1688         59.9698        -2.34882         6.38265
           13818         61.6460         59.3593        -2.36790         6.59646
           13819         62.1385         59.8363        -2.42811         6.57329
           13820         61.6009         59.2113        -2.43526         6.79608
           13821         62.1087         59.7025        -2.50139         6.77024
           13822         61.5560         59.0627        -2.49660         7.00114
           13823         62.0794         59.5684        -2.56846         6.97293
           13824         61.5111         58.9133        -2.55169         7.21104
           13825         62.0504         59.4339        -2.62910         7.18078
           13826         61.4659         58.7631        -2.60023         7.42518
           13827         62.0215         59.2991        -2.68303         7.39319
           13828         61.4203         58.6121        -2.64191         7.64290
           13829         61.9924         59.1640        -2.72994         7.60950
           13830         61.3738         58.4604        -2.67635         7.86355
           13831         61.9629         59.0285        -2.76946         7.82908
           13832         61.3262         58.3079        -2.70314         8.08642
           13833         61.9325         58.8927        -2.80119         8.05122
           13834         61.2769         58.1546        -2.72181         8.31079
           13835         61.9008         58.7565        -2.82466         8.27521
           13836         61.2255         58.0006        -2.73187         8.53587
           13837         61.8675         58.6201        -2.83939         8.50030
           13838         61.1715         57.8459        -2.73275         8.76087
           13839         61.8318         58.4833        -2.84481         8.72569
           13840         61.1142         57.6905        -2.72386         8.98494
           13841         61.7934         58.3463        -2.84033         8.95056
           13842         61.0529         57.5345        -2.70453         9.20719
           13843         61.7513         58.2091        -2.82531         9.17402
           13844         60.9869         57.3780        -2.67408         9.42666
           13845         61.7050         58.0717        -2.79904         9.39516
           13846         60.9153         57.2209        -2.63175         9.64238
           13847         61.6535         57.9341        -2.76076         9.61302
           13848         60.8372         57.0633        -2.57672         9.85330
           13849         61.5960         57.7965        -2.70968         9.82657
           13850         60.7516         56.9054        -2.50815         10.0583
           13851         61.5315         57.6588        -2.64493         10.0347
           13852         60.6573         56.7471        -2.42511         10.2563
           13853         61.4588         57.5211        -2.56559         10.2364
           13854         60.5532         56.5885        -2.32666         10.4460
           13855         61.3769         57.3834        -2.47071         10.4304
           13856         60.4380         56.4297        -2.21176         10.6262
           13857         61.2843         57.2458        -2.35926         10.6154
           13858         60.3104         56.2707        -2.07936         10.7955
           13859         61.1799         57.1083        -2.23017         10.7903
           13860         60.1688         56.1115        -1.92834         10.9525
           13861         61.0621         56.9708        -2.08231         10.9535
           13862         60.0118         55.9522        -1.75753         11.0957
           13863         60.9295         56.8335        -1.91451         11.1037
           13864         59.8378         55.7929        -1.56575         11.2236
           13865         60.7804         56.6964        -1.72556         11.2393
           13866         59.6451         55.6335        -1.35174         11.3347
           13867         60.6132         56.5593        -1.51421         11.3588
           13868         59.4320         55.4740        -1.11425         11.4271
           13869         60.4262         56.4224        -1.27916         11.4606
           13870         59.1967         55.3146    -851.992E-03         11.4992
           13871         60.2177         56.2856        -1.01911         11.5429
           13872         58.9376         55.1551    -563.676E-03         11.5492
           13873         59.9860         56.1488    -732.725E-03         11.6039
           13874         58.6529         54.9956    -248.017E-03         11.5750
           13875         59.7292         56.0121    -418.690E-03         11.6418
           13876         58.3408         54.8360     96.2451E-03         11.5748
           13877         59.4456         55.8753    -75.6875E-03         11.6546
           13878         57.9999         54.6765     470.322E-03         11.5464
           13879         59.1336         55.7386     297.563E-03         11.6403
           13880         57.6286         54.5170     875.361E-03         11.4877
           13881         58.7917         55.6018     702.285E-03         11.5968
           13882         57.2256         54.3576         1.31241         11.3965
           13883         58.4184         55.4651         1.13963         11.5217
           13884         56.7899         54.1984         1.78239         11.2702
           13885         58.0126         55.3283         1.61063         11.4129
           13886         56.3208         54.0396         2.28606         11.1065
           13887         57.5734         55.1917         2.11621         11.2677
           13888         55.8178         53.8814         2.82396         10.9026
           13889         57.1001         55.0555         2.65708         11.0836
           13890         55.2810         53.7242         3.39640         10.6558
           13891         56.5925         54.9198         3.23376         10.8577
           13892         54.7112         53.5685         4.00338         10.3628
           13893         56.0511         54.7851         3.84654         10.5871
           13894         54.1096         53.4149         4.64458         10.0203
           13895         55.4767         54.6518         4.49539         10.2683
           13896         53.4785         53.2642         5.31931         9.62468
           13897         54.8710         54.5207         5.17997         9.89772
           13898         52.8209         53.1176         6.02644         9.17167
           13899         54.2364         54.3927         5.89961         9.47137
           13900         52.1412         52.9763         6.76445         8.65661
           13901         53.5767         54.2686         6.65325         8.98468
           13902         51.4449         52.8418         7.53135         8.07413
           13903         52.8964         54.1499         7.43946         8.43249
           13904         50.7395         52.7158         8.32477         7.41810
           13905         52.2020         54.0380         8.25645         7.80894
           13906         50.0343         52.6004         9.14196         6.68144
           13907         51.5014         53.9345         9.10215         7.10733
           13908         49.3411         52.4976         9.97996         5.85595
           13909         50.8051         53.8412         9.97424         6.31993
           13910         48.6751         52.4096         10.8356         4.93221
           13911         50.1260         53.7599         10.8703         5.43791
           13912         48.0551         52.3385         11.7060         3.89935
           13913         49.4809         53.6925         11.7880         4.45115
           13914         47.5051         52.2863         12.5883         2.74499
           13915         48.8906         53.6406         12.7252         3.34814
           13916         47.0552         52.2545         13.4806         1.45515
           13917         48.3817         53.6054         13.6803         2.11588
           13918         46.7428         52.2438         14.3819     13.2470E-03
           13919         47.9874         53.5878         14.6528     739.919E-03
           13920         56.3671         60.5239         17.3044         9.34514
           13921         55.9730         60.2815         17.6657         9.16432
           13922         55.8818         60.1998         18.0640         9.30756
           13923         56.8688         60.8536         16.5015         9.35905
           13924         56.4588         60.6042         16.8963         9.18756
           13925         57.3791         61.1839         15.6638         9.34354
           13926         56.9572         60.9298         16.0906         9.18645
           13927         57.8903         61.5095         14.8004         9.29484
           13928         57.4613         61.2537         15.2564         9.15672
           13929         58.3946         61.8247         13.9216         9.21101
           13930         57.9639         61.5709         14.4028         9.09562
           13931         58.8847         62.1240         13.0378         9.09200
           13932         58.4581         61.8763         13.5390         9.00207
           13933         59.3542         62.4026         12.1588         8.93947
           13934         58.9374         62.1651         12.6743         8.87658
           13935         59.7979         62.6565         11.2937         8.75647
           13936         59.3962         62.4330         11.8174         8.72109
           13937         60.2118         62.8827         10.4502         8.54713
           13938         59.8301         62.6769         10.9763         8.53870
           13939         60.5934         63.0793         9.63467         8.31627
           13940         60.2356         62.8941         10.1575         8.33336
           13941         60.9410         63.2453         8.85183         8.06903
           13942         60.6106         63.0832         9.36649         8.10952
           13943         61.2545         63.3807         8.10512         7.81058
           13944         60.9538         63.2435         8.60734         7.87189
           13945         61.5344         63.4865         7.39662         7.54588
           13946         61.2651         63.3753         7.88290         7.62515
           13947         61.7817         63.5639         6.72734         7.27951
           13948         61.5448         63.4792         7.19489         7.37376
           13949         61.9984         63.6148         6.09732         7.01558
           13950         61.7942         63.5567         6.54407         7.12185
           13951         62.1862         63.6413         5.50591         6.75763
           13952         62.0147         63.6095         5.93041         6.87309
           13953         62.3477         63.6458         4.95189         6.50867
           13954         62.2082         63.6395         5.35324         6.63070
           13955         62.4849         63.6305         4.43367         6.27119
           13956         62.3767         63.6488         4.81142         6.39739
           13957         62.6002         63.5976         3.94937         6.04717
           13958         62.5223         63.6395         4.30346         6.17540
           13959         62.6960         63.5495         3.49699         5.83815
           13960         62.6472         63.6137         3.82765         5.96656
           13961         62.7742         63.4880         3.07443         5.64529
           13962         62.7533         63.5735         3.38212         5.77228
           13963         62.8370         63.4152         2.67963         5.46940
           13964         62.8426         63.5206         2.96498         5.59361
           13965         62.8861         63.3327         2.31054         5.31102
           13966         62.9170         63.4569         2.57429         5.43133
           13967         62.9233         63.2421         1.96519         5.17045
           13968         62.9783         63.3840         2.20817         5.28595
           13969         62.9502         63.1447         1.64172         5.04779
           13970         63.0280         63.3032         1.86481         5.15774
           13971         62.9680         63.0417         1.33839         4.94301
           13972         63.0676         63.2158         1.54248         5.04684
           13973         62.9781         62.9341         1.05356         4.85592
           13974         63.0984         63.1230         1.23956         4.95320
           13975         62.9817         62.8229     785.743E-03         4.78626
           13976         63.1216         63.0257     954.521E-03         4.87668
           13977         62.9796         62.7087     533.544E-03         4.73369
           13978         63.1384         62.9249     685.967E-03         4.81703
           13979         62.9728         62.5922     295.705E-03         4.69781
           13980         63.1496         62.8211     432.602E-03         4.77396
           13981         62.9621         62.4740     71.0797E-03         4.67819
           13982         63.1562         62.7151     193.242E-03         4.74708
           13983         62.9482         62.3545    -141.371E-03         4.67435
           13984         63.1590         62.6074    -33.1913E-03         4.73601
           13985         62.9316         62.2341    -342.583E-03         4.68581
           13986         63.1586         62.4984    -247.674E-03         4.74029
           13987         62.9131         62.1130    -533.395E-03         4.71206
           13988         63.1556         62.3885    -451.088E-03         4.75947
           13989         62.8929         61.9915    -714.557E-03         4.75261
           13990         63.1507         62.2780    -644.223E-03         4.79308
           13991         62.8717         61.8698    -886.733E-03         4.80694
           13992         63.1443         62.1672    -827.785E-03         4.84063
           13993         62.8496         61.7481        -1.05051         4.87453
           13994         63.1368         62.0562        -1.00240         4.90163
           13995         62.8272         61.6263        -1.20640         4.95489
           13996         63.1287         61.9452        -1.16861         4.97560
           13997         62.8046         61.5046        -1.35484         5.04749
           13998         63.1202         61.8343        -1.32691         5.06203
           13999         62.7821         61.3831        -1.49622         5.15184
           14000         63.1117         61.7236        -1.47769         5.16044
           14001         62.7599         61.2618        -1.63085         5.26744
           14002         63.1034         61.6132        -1.62132         5.27032
           14003         62.7383         61.1406        -1.75900         5.39377
           14004         63.0956         61.5032        -1.75809         5.39119
           14005         62.7173         61.0196        -1.88086         5.53034
           14006         63.0885         61.3936        -1.88821         5.52255
           14007         62.6970         60.8988        -1.99660         5.67665
           14008         63.0821         61.2843        -2.01188         5.66390
           14009         62.6777         60.7782        -2.10632         5.83219
           14010         63.0766         61.1755        -2.12923         5.81474
           14011         62.6592         60.6577        -2.21006         5.99645
           14012         63.0722         61.0670        -2.24032         5.97456
           14013         62.6417         60.5374        -2.30784         6.16892
           14014         63.0688         60.9590        -2.34519         6.14286
           14015         62.6251         60.4171        -2.39963         6.34907
           14016         63.0665         60.8515        -2.44381         6.31912
           14017         62.6094         60.2970        -2.48533         6.53637
           14018         63.0652         60.7443        -2.53613         6.50280
           14019         62.5945         60.1769        -2.56482         6.73028
           14020         63.0649         60.6376        -2.62203         6.69336
           14021         62.5803         60.0569        -2.63792         6.93022
           14022         63.0656         60.5313        -2.70134         6.89025
           14023         62.5667         59.9369        -2.70442         7.13562
           14024         63.0671         60.4253        -2.77388         7.09290
           14025         62.5534         59.8169        -2.76406         7.34588
           14026         63.0692         60.3199        -2.83937         7.30070
           14027         62.5402         59.6970        -2.81652         7.56037
           14028         63.0716         60.2148        -2.89754         7.51306
           14029         62.5269         59.5772        -2.86146         7.77846
           14030         63.0742         60.1102        -2.94804         7.72933
           14031         62.5131         59.4574        -2.89848         7.99946
           14032         63.0766         60.0060        -2.99047         7.94885
           14033         62.4984         59.3376        -2.92712         8.22268
           14034         63.0784         59.9023        -3.02440         8.17092
           14035         62.4823         59.2179        -2.94689         8.44736
           14036         63.0792         59.7990        -3.04935         8.39482
           14037         62.4643         59.0984        -2.95726         8.67274
           14038         63.0785         59.6963        -3.06477         8.61979
           14039         62.4438         58.9790        -2.95762         8.89801
           14040         63.0757         59.5941        -3.07007         8.84505
           14041         62.4202         58.8597        -2.94734         9.12230
           14042         63.0701         59.4924        -3.06462         9.06975
           14043         62.3928         58.7407        -2.92571         9.34473
           14044         63.0611         59.3913        -3.04773         9.29301
           14045         62.3606         58.6218        -2.89198         9.56436
           14046         63.0479         59.2908        -3.01864         9.51393
           14047         62.3229         58.5033        -2.84535         9.78018
           14048         63.0295         59.1909        -2.97656         9.73152
           14049         62.2786         58.3850        -2.78496         9.99116
           14050         63.0051         59.0917        -2.92063         9.94478
           14051         62.2268         58.2670        -2.70990         10.1962
           14052         62.9735         58.9931        -2.84993         10.1526
           14053         62.1661         58.1493        -2.61920         10.3942
           14054         62.9337         58.8952        -2.76350         10.3540
           14055         62.0955         58.0321        -2.51183         10.5838
           14056         62.8845         58.7980        -2.66031         10.5476
           14057         62.0135         57.9151        -2.38672         10.7639
           14058         62.8244         58.7014        -2.53928         10.7323
           14059         61.9187         57.7986        -2.24273         10.9331
           14060         62.7522         58.6055        -2.39927         10.9067
           14061         61.8098         57.6824        -2.07869         11.0900
           14062         62.6663         58.5102        -2.23911         11.0696
           14063         61.6850         57.5666        -1.89336         11.2331
           14064         62.5653         58.4155        -2.05753         11.2194
           14065         61.5428         57.4511        -1.68548         11.3609
           14066         62.4475         58.3213        -1.85328         11.3547
           14067         61.3814         57.3359        -1.45374         11.4718
           14068         62.3111         58.2277        -1.62502         11.4739
           14069         61.1992         57.2210        -1.19680         11.5642
           14070         62.1546         58.1345        -1.37139         11.5754
           14071         60.9944         57.1062    -913.307E-03         11.6362
           14072         61.9761         58.0416        -1.09101         11.6575
           14073         60.7651         56.9916    -601.884E-03         11.6861
           14074         61.7738         57.9490    -782.468E-03         11.7184
           14075         60.5097         56.8770    -261.170E-03         11.7119
           14076         61.5460         57.8565    -444.366E-03         11.7563
           14077         60.2265         56.7625     110.185E-03         11.7117
           14078         61.2910         57.7642    -75.3010E-03         11.7691
           14079         59.9138         56.6479     513.483E-03         11.6834
           14080         61.0071         57.6718     326.101E-03         11.7548
           14081         59.5702         56.5333     949.973E-03         11.6247
           14082         60.6927         57.5794     761.166E-03         11.7113
           14083         59.1944         56.4186         1.42082         11.5334
           14084         60.3464         57.4868         1.23116         11.6363
           14085         58.7852         56.3038         1.92707         11.4070
           14086         59.9670         57.3941         1.73725         11.5275
           14087         58.3418         56.1892         2.46964         11.2430
           14088         59.5536         57.3013         2.28049         11.3823
           14089         57.8640         56.0747         3.04925         11.0385
           14090         59.1055         57.2085         2.86180         11.1979
           14091         57.3515         55.9608         3.66642         10.7907
           14092         58.6224         57.1158         3.48190         10.9715
           14093         56.8051         55.8478         4.32144         10.4963
           14094         58.1046         57.0235         4.14131         10.7000
           14095         56.2259         55.7361         5.01431         10.1517
           14096         57.5529         56.9321         4.84035         10.3798
           14097         55.6159         55.6266         5.74472         9.75312
           14098         56.9688         56.8420         5.57904         10.0071
           14099         54.9780         55.5200         6.51206         9.29609
           14100         56.3545         56.7540         6.35715         9.57781
           14101         54.3161         55.4173         7.31539         8.77575
           14102         55.7135         56.6687         7.17418         9.08714
           14103         53.6356         55.3199         8.15344         8.18653
           14104         55.0500         56.5873         8.02936         8.52976
           14105         52.9434         55.2289         9.02469         7.52211
           14106         54.3701         56.5108         8.92167         7.89966
           14107         52.2484         55.1460         9.92739         6.77526
           14108         53.6814         56.4404         9.84992         7.19000
           14109         51.5619         55.0727         10.8597         5.93773
           14110         52.9939         56.3775         10.8128         6.39301
           14111         50.8985         55.0105         11.8197         5.00009
           14112         52.3200         56.3233         11.8091         5.49985
           14113         50.2764         54.9609         12.8060         3.95167
           14114         51.6759         56.2789         12.8378         4.50055
           14115         49.7188         54.9251         13.8172         2.78040
           14116         51.0818         56.2454         13.8980         3.38388
           14117         49.2549         54.9036         14.8528         1.47284
           14118         50.5636         56.2232         14.9897         2.13727
           14119         48.9211         54.8966         15.9136     13.2137E-03
           14120         50.1535         56.2124         16.1136     746.920E-03
           14121         56.0761         60.3741         17.2801         9.02154
           14122         55.7056         60.1499         17.6353         8.84790
           14123         55.6046         60.0575         18.0207         8.99090
           14124         56.5636         60.6957         16.5020         9.03241
           14125         56.1787         60.4656         16.8858         8.86643
           14126         57.0606         61.0181         15.6932         9.01857
           14127         56.6646         60.7839         16.1046         8.86457
           14128         57.5607         61.3367         14.8616         8.97666
           14129         57.1575         61.1010         15.2984         8.83856
           14130         58.0572         61.6468         14.0157         8.90480
           14131         57.6513         61.4126         14.4745         8.78590
           14132         58.5436         61.9439         13.1641         8.80260
           14133         58.1400         61.7144         13.6409         8.70539
           14134         59.0143         62.2235         12.3154         8.67110
           14135         58.6177         62.0023         12.8053         8.59718
           14136         59.4643         62.4822         11.4774         8.51252
           14137         59.0796         62.2726         11.9754         8.46258
           14138         59.8898         62.7170         10.6570         8.33006
           14139         59.5212         62.5223         11.1581         8.30391
           14140         60.2878         62.9259         9.85989         8.12756
           14141         59.9392         62.7488         10.3593         8.12429
           14142         60.6566         63.1079         9.09078         7.90927
           14143         60.3311         62.9507         9.58415         7.92733
           14144         60.9952         63.2626         8.35306         7.67956
           14145         60.6955         63.1270         8.83646         7.71696
           14146         61.3036         63.3902         7.64907         7.44273
           14147         61.0314         63.2776         8.11919         7.49716
           14148         61.5824         63.4918         6.98015         7.20286
           14149         61.3390         63.4029         7.43429         7.27184
           14150         61.8326         63.5686         6.34681         6.96367
           14151         61.6187         63.5037         6.78286         7.04468
           14152         62.0556         63.6222         5.74889         6.72848
           14153         61.8716         63.5813         6.16526         6.81906
           14154         62.2532         63.6545         5.18565         6.50019
           14155         62.0989         63.6373         5.58127         6.59796
           14156         62.4272         63.6675         4.65597         6.28123
           14157         62.3023         63.6733         5.03018         6.38402
           14158         62.5797         63.6631         4.15842         6.07363
           14159         62.4833         63.6912         4.51091         6.17945
           14160         62.7125         63.6433         3.69139         5.87902
           14161         62.6439         63.6927         4.02215         5.98608
           14162         62.8275         63.6099         3.25315         5.69869
           14163         62.7858         63.6797         3.56240         5.80542
           14164         62.9266         63.5646         2.84190         5.53358
           14165         62.9107         63.6538         3.13006         5.63864
           14166         63.0114         63.5091         2.45587         5.38440
           14167         63.0203         63.6167         2.72347         5.48663
           14168         63.0837         63.4448         2.09330         5.25160
           14169         63.1163         63.5699         2.34099         5.35003
           14170         63.1449         63.3731         1.75251         5.13545
           14171         63.2001         63.5147         1.98100         5.22929
           14172         63.1964         63.2951         1.43190         5.03605
           14173         63.2733         63.4524         1.64193         5.12465
           14174         63.2394         63.2120         1.12995         4.95337
           14175         63.3370         63.3842         1.32229         5.03621
           14176         63.2751         63.1246     845.246E-03         4.88728
           14177         63.3926         63.3109         1.02067         4.96396
           14178         63.3045         63.0338     576.480E-03         4.83755
           14179         63.4410         63.2336     735.759E-03         4.90778
           14180         63.3286         62.9402     322.442E-03         4.80389
           14181         63.4834         63.1529     466.321E-03         4.86747
           14182         63.3483         62.8445     82.0284E-03         4.78596
           14183         63.5205         63.0696     211.231E-03         4.84276
           14184         63.3642         62.7472    -145.772E-03         4.78338
           14185         63.5534         62.9843    -30.5510E-03         4.83332
           14186         63.3771         62.6486    -361.874E-03         4.79572
           14187         63.5826         62.8974    -259.970E-03         4.83880
           14188         63.3875         62.5493    -567.102E-03         4.82257
           14189         63.6089         62.8094    -477.886E-03         4.85882
           14190         63.3961         62.4494    -762.195E-03         4.86346
           14191         63.6329         62.7207    -685.071E-03         4.89295
           14192         63.4033         62.3493    -947.814E-03         4.91794
           14193         63.6551         62.6315    -882.221E-03         4.94076
           14194         63.4096         62.2491        -1.12454         4.98552
           14195         63.6761         62.5422        -1.06995         5.00182
           14196         63.4154         62.1490        -1.29288         5.06575
           14197         63.6962         62.4529        -1.24881         5.07567
           14198         63.4209         62.0492        -1.45329         5.15813
           14199         63.7159         62.3639        -1.41927         5.16185
           14200         63.4265         61.9498        -1.60614         5.26219
           14201         63.7356         62.2754        -1.58173         5.25988
           14202         63.4325         61.8508        -1.75175         5.37744
           14203         63.7554         62.1873        -1.73656         5.36931
           14204         63.4391         61.7523        -1.89037         5.50340
           14205         63.7758         62.0999        -1.88403         5.48965
           14206         63.4464         61.6544        -2.02222         5.63958
           14207         63.7969         62.0132        -2.02438         5.62043
           14208         63.4547         61.5572        -2.14745         5.78548
           14209         63.8188         61.9273        -2.15778         5.76116
           14210         63.4641         61.4606        -2.26614         5.94060
           14211         63.8419         61.8423        -2.28435         5.91134
           14212         63.4745         61.3646        -2.37835         6.10445
           14213         63.8661         61.7581        -2.40417         6.07049
           14214         63.4861         61.2694        -2.48409         6.27651
           14215         63.8916         61.6750        -2.51725         6.23809
           14216         63.4990         61.1749        -2.58329         6.45625
           14217         63.9183         61.5928        -2.62356         6.41363
           14218         63.5130         61.0811        -2.67587         6.64314
           14219         63.9463         61.5116        -2.72303         6.59659
           14220         63.5280         60.9880        -2.76169         6.83663
           14221         63.9756         61.4315        -2.81553         6.78641
           14222         63.5441         60.8957        -2.84055         7.03617
           14223         64.0061         61.3524        -2.90089         6.98255
           14224         63.5610         60.8041        -2.91221         7.24116
           14225         64.0376         61.2745        -2.97887         7.18442
           14226         63.5785         60.7133        -2.97640         7.45100
           14227         64.0699         61.1976        -3.04923         7.39145
           14228         63.5964         60.6234        -3.03277         7.66507
           14229         64.1028         61.1219        -3.11162         7.60301
           14230         63.6144         60.5342        -3.08096         7.88272
           14231         64.1362         61.0474        -3.16569         7.81847
           14232         63.6321         60.4458        -3.12054         8.10328
           14233         64.1694         60.9740        -3.21103         8.03715
           14234         63.6491         60.3583        -3.15102         8.32602
           14235         64.2024         60.9019        -3.24715         8.25837
           14236         63.6650         60.2717        -3.17187         8.55021
           14237         64.2344         60.8310        -3.27354         8.48140
           14238         63.6791         60.1860        -3.18252         8.77507
           14239         64.2651         60.7614        -3.28963         8.70548
           14240         63.6908         60.1011        -3.18234         8.99980
           14241         64.2938         60.6930        -3.29479         8.92982
           14242         63.6996         60.0172        -3.17063         9.22353
           14243         64.3198         60.6259        -3.28834         9.15358
           14244         63.7044         59.9343        -3.14666         9.44537
           14245         64.3425         60.5602        -3.26955         9.37589
           14246         63.7047         59.8523        -3.10962         9.66438
           14247         64.3609         60.4958        -3.23763         9.59583
           14248         63.6993         59.7713        -3.05867         9.87958
           14249         64.3741         60.4326        -3.19172         9.81244
           14250         63.6873         59.6913        -2.99289         10.0899
           14251         64.3812         60.3709        -3.13093         10.0247
           14252         63.6676         59.6123        -2.91132         10.2943
           14253         64.3812         60.3104        -3.05427         10.2316
           14254         63.6390         59.5342        -2.81293         10.4916
           14255         64.3727         60.2513        -2.96074         10.4319
           14256         63.6002         59.4571        -2.69663         10.6806
           14257         64.3546         60.1934        -2.84925         10.6246
           14258         63.5498         59.3810        -2.56130         10.8600
           14259         64.3255         60.1367        -2.71865         10.8083
           14260         63.4864         59.3057        -2.40573         11.0286
           14261         64.2840         60.0813        -2.56775         10.9819
           14262         63.4085         59.2314        -2.22868         11.1849
           14263         64.2286         60.0269        -2.39531         11.1439
           14264         63.3144         59.1578        -2.02886         11.3274
           14265         64.1577         59.9736        -2.20001         11.2929
           14266         63.2025         59.0849        -1.80493         11.4547
           14267         64.0697         59.9213        -1.98050         11.4275
           14268         63.0711         59.0126        -1.55550         11.5652
           14269         63.9628         59.8698        -1.73540         11.5461
           14270         62.9185         58.9409        -1.27916         11.6572
           14271         63.8354         59.8191        -1.46327         11.6471
           14272         62.7428         58.8696    -974.486E-03         11.7290
           14273         63.6856         59.7689        -1.16264         11.7287
           14274         62.5423         58.7986    -640.018E-03         11.7787
           14275         63.5117         59.7193    -832.037E-03         11.7893
           14276         62.3152         58.7278    -274.306E-03         11.8045
           14277         63.3119         59.6699    -469.959E-03         11.8270
           14278         62.0597         58.6571     124.090E-03         11.8043
           14279         63.0844         59.6207    -74.9183E-03         11.8397
           14280         61.7744         58.5863     556.576E-03         11.7760
           14281         62.8275         59.5715     354.562E-03         11.8255
           14282         61.4577         58.5154         1.02451         11.7175
           14283         62.5398         59.5223     819.920E-03         11.7821
           14284         61.1081         58.4442         1.52919         11.6263
           14285         62.2197         59.4728         1.32254         11.7074
           14286         60.7248         58.3728         2.07181         11.5000
           14287         61.8661         59.4230         1.86375         11.5988
           14288         60.3067         58.3013         2.65344         11.3360
           14289         61.4778         59.3728         2.44476         11.4538
           14290         59.8534         58.2295         3.27503         11.1314
           14291         61.0543         59.3223         3.06667         11.2695
           14292         59.3648         58.1578         3.93732         10.8832
           14293         60.5952         59.2716         3.73045         11.0431
           14294         58.8414         58.0864         4.64090         10.5880
           14295         60.1006         59.2207         4.43690         10.7712
           14296         58.2843         58.0157         5.38610         10.2421
           14297         59.5712         59.1700         5.18664         10.4503
           14298         57.6951         57.9462         6.17304         9.84151
           14299         59.0084         59.1199         5.98010         10.0765
           14300         57.0767         57.8785         7.00162         9.38169
           14301         58.4141         59.0707         6.81750         9.64536
           14302         56.4326         57.8133         7.87148         8.85757
           14303         57.7916         59.0231         7.69891         9.15209
           14304         55.7679         57.7517         8.78205         8.26345
           14305         57.1449         58.9777         8.62417         8.59123
           14306         55.0892         57.6945         9.73263         7.59290
           14307         56.4797         58.9354         9.59302         7.95665
           14308         54.4049         57.6428         10.7224         6.83862
           14309         55.8034         58.8969         10.6051         7.24148
           14310         53.7261         57.5977         11.7506         5.99236
           14311         55.1253         58.8630         11.6602         6.43792
           14312         53.0666         57.5602         12.8165         5.04480
           14313         54.4578         58.8346         12.7579         5.53725
           14314         52.4443         57.5309         13.9197         3.98548
           14315         53.8163         58.8121         13.8984         4.52967
           14316         51.8816         57.5104         15.0605         2.80272
           14317         53.2206         58.7960         15.0823         3.40428
           14318         51.4070         57.4988         16.2397         1.48360
           14319         52.6958         58.7860         16.3105         2.14897
           14320         51.0558         57.4951         17.4591     13.1228E-03
           14321         52.2735         58.7816         17.5851     750.554E-03
           14322         55.8175         60.2521         17.2606         8.70514
           14323         55.4673         60.0436         17.6110         8.53759
           14324         55.3574         59.9416         17.9855         8.68054
           14325         56.2932         60.5669         16.5032         8.71325
           14326         55.9300         60.3534         16.8781         8.55199
           14327         56.7791         60.8826         15.7189         8.70060
           14328         56.4055         60.6656         16.1175         8.54932
           14329         57.2697         61.1953         14.9143         8.66419
           14330         56.8890         60.9769         15.3349         8.52627
           14331         57.7592         61.5010         14.0966         8.60222
           14332         57.3752         61.2837         14.5364         8.48056
           14333         58.2421         61.7957         13.2730         8.51409
           14334         57.8588         61.5823         13.7287         8.41096
           14335         58.7131         62.0758         12.4509         8.40038
           14336         58.3349         61.8692         12.9187         8.31734
           14337         59.1678         62.3380         11.6371         8.26271
           14338         58.7988         62.1412         12.1127         8.20057
           14339         59.6023         62.5796         10.8378         8.10353
           14340         59.2464         62.3953         11.3168         8.06237
           14341         60.0138         62.7986         10.0580         7.92591
           14342         59.6745         62.6294         10.5364         7.90519
           14343         60.4002         62.9939         9.30231         7.73335
           14344         60.0805         62.8418         9.77617         7.73195
           14345         60.7602         63.1647         8.57394         7.52951
           14346         60.4626         63.0316         9.03977         7.54592
           14347         61.0933         63.3111         7.87537         7.31812
           14348         60.8198         63.1982         8.33009         7.35049
           14349         61.3994         63.4336         7.20817         7.10275
           14350         61.1516         63.3419         7.64921         7.14904
           14351         61.6793         63.5331         6.57317         6.88677
           14352         61.4581         63.4631         6.99845         6.94485
           14353         61.9338         63.6109         5.97058         6.67324
           14354         61.7397         63.5627         6.37847         6.74096
           14355         62.1642         63.6684         5.40007         6.46487
           14356         61.9975         63.6420         5.78937         6.54014
           14357         62.3720         63.7072         4.86091         6.26403
           14358         62.2326         63.7022         5.23079         6.34488
           14359         62.5588         63.7290         4.35206         6.07273
           14360         62.4463         63.7450         4.70204         6.15731
           14361         62.7262         63.7355         3.87224         5.89263
           14362         62.6400         63.7718         4.20213         5.97928
           14363         62.8759         63.7284         3.42004         5.72509
           14364         62.8154         63.7842         3.72986         5.81229
           14365         63.0095         63.7092         2.99396         5.57115
           14366         62.9739         63.7837         3.28394         5.65759
           14367         63.1285         63.6794         2.59247         5.43164
           14368         63.1170         63.7719         2.86295         5.51616
           14369         63.2346         63.6405         2.21402         5.30714
           14370         63.2462         63.7500         2.46549         5.38874
           14371         63.3291         63.5937         1.85710         5.19804
           14372         63.3630         63.7195         2.09011         5.27589
           14373         63.4133         63.5403         1.52026         5.10458
           14374         63.4687         63.6816         1.73542         5.17797
           14375         63.4886         63.4812         1.20210         5.02684
           14376         63.5645         63.6373         1.40007         5.09520
           14377         63.5560         63.4174     901.322E-03         4.96480
           14378         63.6517         63.5876         1.08275         5.02767
           14379         63.6166         63.3497     616.687E-03         4.91835
           14380         63.7313         63.5334     782.250E-03         4.97536
           14381         63.6713         63.2789     347.051E-03         4.88731
           14382         63.8043         63.4757     497.417E-03         4.93818
           14383         63.7211         63.2057     91.3605E-03         4.87140
           14384         63.8717         63.4149     227.182E-03         4.91594
           14385         63.7668         63.1305    -151.355E-03         4.87034
           14386         63.9344         63.3519    -29.4429E-03         4.90841
           14387         63.8090         63.0540    -381.982E-03         4.88378
           14388         63.9930         63.2871    -273.365E-03         4.91531
           14389         63.8485         62.9764    -601.319E-03         4.91135
           14390         64.0485         63.2210    -505.413E-03         4.93630
           14391         63.8858         62.8983    -810.090E-03         4.95265
           14392         64.1013         63.1541    -726.335E-03         4.97104
           14393         63.9215         62.8199        -1.00894         5.00727
           14394         64.1521         63.0867    -936.809E-03         5.01915
           14395         63.9561         62.7415        -1.19845         5.07479
           14396         64.2014         63.0192        -1.13744         5.08023
           14397         63.9900         62.6633        -1.37911         5.15475
           14398         64.2498         62.9518        -1.32875         5.15387
           14399         64.0236         62.5855        -1.55137         5.24673
           14400         64.2976         62.8848        -1.51122         5.23963
           14401         64.0573         62.5083        -1.71560         5.35025
           14402         64.3452         62.8184        -1.68524         5.33709
           14403         64.0914         62.4318        -1.87212         5.46487
           14404         64.3931         62.7527        -1.85116         5.44580
           14405         64.1260         62.3561        -2.02117         5.59010
           14406         64.4414         62.6880        -2.00925         5.56531
           14407         64.1615         62.2814        -2.16296         5.72548
           14408         64.4905         62.6243        -2.15975         5.69514
           14409         64.1981         62.2077        -2.29764         5.87052
           14410         64.5406         62.5618        -2.30282         5.83484
           14411         64.2358         62.1351        -2.42529         6.02475
           14412         64.5918         62.5005        -2.43857         5.98392
           14413         64.2748         62.0637        -2.54595         6.18765
           14414         64.6442         62.4406        -2.56707         6.14190
           14415         64.3152         61.9935        -2.65962         6.35873
           14416         64.6981         62.3822        -2.68832         6.30828
           14417         64.3569         61.9245        -2.76624         6.53746
           14418         64.7534         62.3252        -2.80229         6.48254
           14419         64.4000         61.8569        -2.86569         6.72331
           14420         64.8102         62.2698        -2.90889         6.66418
           14421         64.4444         61.7907        -2.95781         6.91574
           14422         64.8684         62.2161        -3.00797         6.85264
           14423         64.4900         61.7258        -3.04241         7.11419
           14424         64.9279         62.1640        -3.09934         7.04738
           14425         64.5366         61.6624        -3.11922         7.31807
           14426         64.9887         62.1137        -3.18276         7.24783
           14427         64.5841         61.6004        -3.18795         7.52678
           14428         65.0504         62.0651        -3.25794         7.45339
           14429         64.6321         61.5399        -3.24822         7.73969
           14430         65.1130         62.0184        -3.32454         7.66345
           14431         64.6805         61.4809        -3.29964         7.95616
           14432         65.1760         61.9735        -3.38216         7.87738
           14433         64.7286         61.4235        -3.34176         8.17550
           14434         65.2392         61.9304        -3.43037         8.09451
           14435         64.7763         61.3677        -3.37405         8.39702
           14436         65.3021         61.8893        -3.46866         8.31415
           14437         64.8229         61.3135        -3.39596         8.61996
           14438         65.3643         61.8502        -3.49647         8.53557
           14439         64.8678         61.2608        -3.40688         8.84355
           14440         65.4252         61.8130        -3.51321         8.75803
           14441         64.9105         61.2099        -3.40612         9.06699
           14442         65.4841         61.7777        -3.51821         8.98073
           14443         64.9501         61.1606        -3.39297         9.28942
           14444         65.5405         61.7445        -3.51075         9.20283
           14445         64.9860         61.1129        -3.36664         9.50995
           14446         65.5934         61.7133        -3.49006         9.42348
           14447         65.0172         61.0669        -3.32629         9.72764
           14448         65.6421         61.6840        -3.45529         9.64176
           14449         65.0427         61.0226        -3.27100         9.94151
           14450         65.6856         61.6568        -3.40556         9.85671
           14451         65.0616         60.9799        -3.19984         10.1505
           14452         65.7229         61.6315        -3.33991         10.0673
           14453         65.0725         60.9388        -3.11176         10.3536
           14454         65.7528         61.6082        -3.25732         10.2726
           14455         65.0745         60.8993        -3.00569         10.5496
           14456         65.7743         61.5868        -3.15671         10.4713
           14457         65.0660         60.8613        -2.88050         10.7374
           14458         65.7859         61.5672        -3.03695         10.6625
           14459         65.0457         60.8248        -2.73498         10.9156
           14460         65.7863         61.5494        -2.89683         10.8447
           14461         65.0122         60.7897        -2.56788         11.0831
           14462         65.7741         61.5333        -2.73511         11.0169
           14463         64.9639         60.7560        -2.37789         11.2383
           14464         65.7478         61.5187        -2.55046         11.1775
           14465         64.8992         60.7234        -2.16365         11.3799
           14466         65.7057         61.5057        -2.34153         11.3254
           14467         64.8163         60.6919        -1.92374         11.5064
           14468         65.6462         61.4940        -2.10688         11.4589
           14469         64.7136         60.6614        -1.65672         11.6162
           14470         65.5676         61.4835        -1.84505         11.5765
           14471         64.5893         60.6317        -1.36110         11.7076
           14472         65.4681         61.4740        -1.55455         11.6767
           14473         64.4416         60.6026        -1.03536         11.7789
           14474         65.3459         61.4654        -1.23381         11.7577
           14475         64.2687         60.5741    -677.965E-03         11.8283
           14476         65.1992         61.4574    -881.287E-03         11.8178
           14477         64.0688         60.5458    -287.376E-03         11.8539
           14478         65.0263         61.4499    -495.383E-03         11.8552
           14479         63.8403         60.5176     137.951E-03         11.8536
           14480         64.8253         61.4427    -74.5098E-03         11.8678
           14481         63.5814         60.4895     599.529E-03         11.8255
           14482         64.5947         61.4356     382.916E-03         11.8536
           14483         63.2907         60.4611         1.09884         11.7671
           14484         64.3328         61.4283     878.450E-03         11.8104
           14485         62.9668         60.4324         1.63732         11.6763
           14486         64.0381         61.4207         1.41362         11.7360
           14487         62.6085         60.4033         2.21633         11.5504
           14488         63.7094         61.4127         1.98990         11.6278
           14489         62.2150         60.3736         2.83711         11.3867
           14490         63.3457         61.4041         2.60868         11.4833
           14491         61.7858         60.3435         3.50084         11.1824
           14492         62.9462         61.3948         3.27128         11.2996
           14493         61.3206         60.3130         4.20852         10.9343
           14494         62.5105         61.3849         3.97890         11.0736
           14495         60.8198         60.2821         4.96102         10.6389
           14496         62.0386         61.3743         4.73263         10.8020
           14497         60.2842         60.2512         5.75906         10.2926
           14498         61.5311         61.3632         5.53343         10.4811
           14499         59.7156         60.2205         6.60317         9.89100
           14500         60.9891         61.3518         6.38213         10.1070
           14501         59.1164         60.1905         7.49375         9.42962
           14502         60.4146         61.3403         7.27942         9.67523
           14503         58.4900         60.1616         8.43103         8.90327
           14504         59.8105         61.3290         8.22587         9.18077
           14505         57.8413         60.1346         9.41513         8.30615
           14506         59.1806         61.3185         9.22199         8.61815
           14507         57.1763         60.1098         10.4461         7.63176
           14508         58.5303         61.3090         10.2682         7.98121
           14509         56.5034         60.0881         11.5240         6.87280
           14510         57.8667         61.3011         11.3650         7.26304
           14511         55.8331         60.0700         12.6490         6.02110
           14512         57.1989         61.2950         12.5129         6.45594
           14513         55.1789         60.0558         13.8215         5.06750
           14514         56.5387         61.2911         13.7127         5.55131
           14515         54.5581         60.0458         15.0423         4.00179
           14516         55.9013         61.2895         14.9654         4.53957
           14517         53.9927         60.0399         16.3127         2.81271
           14518         55.3061         61.2897         16.2728         3.41019
           14519         53.5105         60.0374         17.6347         1.48787
           14520         54.7775         61.2912         17.6369         2.15153
           14521         53.1458         60.0370         19.0116     12.9846E-03
           14522         54.3463         61.2928         19.0610     751.019E-03
           14523         55.5874         60.1542         17.2454         8.39471
           14524         55.2548         59.9591         17.5919         8.23232
           14525         55.1367         59.8487         17.9572         8.37536
           14526         56.0533         60.4634         16.5053         8.40034
           14527         55.7088         60.2641         16.8727         8.24309
           14528         56.5300         60.7734         15.7417         8.38855
           14529         56.1758         60.5712         16.1295         8.23961
           14530         57.0125         61.0811         14.9600         8.35664
           14531         56.6514         60.8776         15.3669         8.21895
           14532         57.4960         61.3829         14.1664         8.30290
           14533         57.1311         61.1803         14.5901         8.17903
           14534         57.9755         61.6756         13.3672         8.22663
           14535         57.6105         61.4762         13.8049         8.11861
           14536         58.4465         61.9558         12.5684         8.12807
           14537         58.0848         61.7621         13.0169         8.03739
           14538         58.9047         62.2206         11.7762         8.00836
           14539         58.5500         62.0352         12.2320         7.93590
           14540         59.3465         62.4676         10.9959         7.86939
           14541         59.0024         62.2929         11.4553         7.81541
           14542         59.7691         62.6950         10.2323         7.71360
           14543         59.4388         62.5332         10.6918         7.67783
           14544         60.1703         62.9013         9.48935         7.54386
           14545         59.8566         62.7545         9.94544         7.52553
           14546         60.5485         63.0859         8.77034         7.36325
           14547         60.2539         62.9556         9.21991         7.36121
           14548         60.9028         63.2484         8.07771         7.17496
           14549         60.6294         63.1361         8.51794         7.18774
           14550         61.2330         63.3892         7.41317         6.98213
           14551         60.9823         63.2957         7.84164         7.00805
           14552         61.5392         63.5087         6.77777         6.78775
           14553         61.3123         63.4349         7.19246         6.82503
           14554         61.8219         63.6080         6.17200         6.59461
           14555         61.6197         63.5540         6.57128         6.64140
           14556         62.0821         63.6881         5.59584         6.40525
           14557         61.9050         63.6542         5.97845         6.45972
           14558         62.3208         63.7505         5.04888         6.22191
           14559         62.1689         63.7364         5.41391         6.28228
           14560         62.5393         63.7964         4.53041         6.04654
           14561         62.4125         63.8018         4.87723         6.11113
           14562         62.7389         63.8273         4.03946         5.88079
           14563         62.6370         63.8519         4.36773         5.94805
           14564         62.9211         63.8448         3.57491         5.72606
           14565         62.8436         63.8879         3.88449         5.79456
           14566         63.0873         63.8502         3.13550         5.58346
           14567         63.0336         63.9113         3.42646         5.65192
           14568         63.2389         63.8450         2.71994         5.45388
           14569         63.2085         63.9234         2.99248         5.52117
           14570         63.3774         63.8304         2.32689         5.33800
           14571         63.3694         63.9254         2.58133         5.40313
           14572         63.5040         63.8077         1.95500         5.23633
           14573         63.5178         63.9186         2.19178         5.29843
           14574         63.6200         63.7780         1.60299         5.14918
           14575         63.6549         63.9041         1.82257         5.20753
           14576         63.7267         63.7423         1.26958         5.07676
           14577         63.7818         63.8830         1.47250         5.13073
           14578         63.8251         63.7016     953.558E-03         5.01915
           14579         63.8997         63.8563         1.14038         5.06824
           14580         63.9162         63.6568     653.793E-03         4.97633
           14581         64.0097         63.8249     825.100E-03         5.02011
           14582         64.0012         63.6085     369.209E-03         4.94819
           14583         64.1129         63.7896     525.584E-03         4.98633
           14584         64.0808         63.5576     98.8089E-03         4.93458
           14585         64.2100         63.7512     240.836E-03         4.96682
           14586         64.1559         63.5045    -158.329E-03         4.93524
           14587         64.3021         63.7102    -30.0770E-03         4.96140
           14588         64.2272         63.4499    -403.053E-03         4.94993
           14589         64.3899         63.6674    -288.016E-03         4.96986
           14590         64.2955         63.3942    -636.132E-03         4.97832
           14591         64.4741         63.6232    -533.771E-03         4.99194
           14592         64.3614         63.3379    -858.266E-03         5.02008
           14593         64.5555         63.5780    -768.061E-03         5.02735
           14594         64.4254         63.2812        -1.07008         5.07484
           14595         64.6346         63.5324    -991.538E-03         5.07576
           14596         64.4882         63.2246        -1.27214         5.14221
           14597         64.7121         63.4867        -1.20478         5.13682
           14598         64.5501         63.1683        -1.46493         5.22180
           14599         64.7884         63.4411        -1.40831         5.21014
           14600         64.6117         63.1126        -1.64887         5.31319
           14601         64.8641         63.3961        -1.60258         5.29535
           14602         64.6732         63.0576        -1.82435         5.41595
           14603         64.9395         63.3518        -1.78798         5.39204
           14604         64.7351         63.0036        -1.99165         5.52964
           14605         65.0151         63.3085        -1.96484         5.49978
           14606         64.7976         62.9508        -2.15103         5.65382
           14607         65.0911         63.2664        -2.13342         5.61815
           14608         64.8610         62.8992        -2.30268         5.78803
           14609         65.1679         63.2256        -2.29395         5.74671
           14610         64.9255         62.8490        -2.44673         5.93181
           14611         65.2457         63.1864        -2.44659         5.88500
           14612         64.9912         62.8003        -2.58327         6.08468
           14613         65.3246         63.1488        -2.59143         6.03256
           14614         65.0583         62.7533        -2.71233         6.24615
           14615         65.4049         63.1130        -2.72853         6.18892
           14616         65.1269         62.7080        -2.83389         6.41572
           14617         65.4867         63.0791        -2.85789         6.35358
           14618         65.1970         62.6644        -2.94787         6.59288
           14619         65.5701         63.0472        -2.97946         6.52605
           14620         65.2686         62.6228        -3.05415         6.77711
           14621         65.6550         63.0173        -3.09312         6.70581
           14622         65.3416         62.5830        -3.15255         6.96787
           14623         65.7414         62.9897        -3.19873         6.89234
           14624         65.4160         62.5453        -3.24285         7.16460
           14625         65.8293         62.9643        -3.29606         7.08508
           14626         65.4915         62.5096        -3.32478         7.36671
           14627         65.9185         62.9412        -3.38487         7.28348
           14628         65.5681         62.4760        -3.39801         7.57362
           14629         66.0088         62.9205        -3.46484         7.48694
           14630         65.6453         62.4446        -3.46215         7.78469
           14631         66.1000         62.9022        -3.53561         7.69485
           14632         65.7229         62.4153        -3.51678         7.99928
           14633         66.1919         62.8864        -3.59676         7.90659
           14634         65.8006         62.3883        -3.56140         8.21672
           14635         66.2839         62.8731        -3.64780         8.12149
           14636         65.8777         62.3635        -3.59549         8.43630
           14637         66.3758         62.8624        -3.68823         8.33887
           14638         65.9539         62.3410        -3.61844         8.65728
           14639         66.4670         62.8543        -3.71745         8.55801
           14640         66.0285         62.3208        -3.62960         8.87890
           14641         66.5569         62.8489        -3.73482         8.77815
           14642         66.1009         62.3030        -3.62826         9.10035
           14643         66.6450         62.8460        -3.73964         8.99853
           14644         66.1702         62.2874        -3.61366         9.32079
           14645         66.7304         62.8459        -3.73117         9.21831
           14646         66.2357         62.2742        -3.58497         9.53932
           14647         66.8124         62.8483        -3.70857         9.43663
           14648         66.2965         62.2633        -3.54130         9.75503
           14649         66.8900         62.8534        -3.67097         9.65259
           14650         66.3516         62.2547        -3.48170         9.96693
           14651         66.9625         62.8611        -3.61743         9.86525
           14652         66.3999         62.2483        -3.40517         10.1740
           14653         67.0286         62.8714        -3.54695         10.0736
           14654         66.4402         62.2441        -3.31062         10.3752
           14655         67.0872         62.8842        -3.45846         10.2767
           14656         66.4712         62.2421        -3.19693         10.5694
           14657         67.1372         62.8995        -3.35083         10.4733
           14658         66.4917         62.2422        -3.06289         10.7554
           14659         67.1772         62.9171        -3.22287         10.6623
           14660         66.5002         62.2443        -2.90726         10.9319
           14661         67.2059         62.9371        -3.07332         10.8426
           14662         66.4953         62.2482        -2.72872         11.0978
           14663         67.2217         62.9592        -2.90087         11.0128
           14664         66.4753         62.2539        -2.52589         11.2515
           14665         67.2232         62.9833        -2.70414         11.1718
           14666         66.4386         62.2612        -2.29734         11.3918
           14667         67.2086         63.0094        -2.48170         11.3180
           14668         66.3835         62.2699        -2.04160         11.5171
           14669         67.1764         63.0371        -2.23206         11.4500
           14670         66.3083         62.2800        -1.75713         11.6258
           14671         67.1248         63.0664        -1.95367         11.5664
           14672         66.2112         62.2911        -1.44238         11.7164
           14673         67.0521         63.0970        -1.64497         11.6655
           14674         66.0904         62.3030        -1.09575         11.7870
           14675         66.9564         63.1287        -1.30432         11.7456
           14676         65.9440         62.3157    -715.606E-03         11.8359
           14677         66.8359         63.1613    -930.068E-03         11.8051
           14678         65.7704         62.3288    -300.314E-03         11.8612
           14679         66.6889         63.1945    -520.537E-03         11.8420
           14680         65.5678         62.3420     151.773E-03         11.8609
           14681         66.5136         63.2281    -74.0332E-03         11.8544
           14682         65.3345         62.3553     642.287E-03         11.8329
           14683         66.3082         63.2618     411.144E-03         11.8402
           14684         65.0690         62.3683         1.17284         11.7749
           14685         66.0713         63.2953     936.678E-03         11.7973
           14686         64.7700         62.3809         1.74502         11.6845
           14687         65.8013         63.3285         1.50424         11.7233
           14688         64.4361         62.3929         2.36035         11.5592
           14689         65.4969         63.3611         2.11547         11.6158
           14690         64.0666         62.4041         3.02028         11.3962
           14691         65.1570         63.3929         2.77194         11.4720
           14692         63.6608         62.4144         3.72621         11.1925
           14693         64.7809         63.4237         3.47520         11.2891
           14694         63.2184         62.4238         4.47940         10.9451
           14695         64.3680         63.4534         4.22671         11.0640
           14696         62.7396         62.4324         5.28106         10.6503
           14697         63.9182         63.4819         5.02783         10.7933
           14698         62.2254         62.4400         6.13226         10.3042
           14699         63.4321         63.5092         5.87988         10.4733
           14700         61.6770         62.4470         7.03396         9.90276
           14701         62.9106         63.5352         6.78409         10.0999
           14702         61.0968         62.4535         7.98705         9.44114
           14703         62.3556         63.5602         7.74159         9.66864
           14704         60.4880         62.4596         8.99233         8.91412
           14705         61.7696         63.5840         8.75350         9.17446
           14706         59.8551         62.4658         10.0506         8.31591
           14707         61.1564         63.6070         9.82092         8.61185
           14708         59.2043         62.4723         11.1626         7.63998
           14709         60.5212         63.6291         10.9449         7.97464
           14710         58.5432         62.4792         12.3292         6.87910
           14711         59.8707         63.6504         12.1268         7.25601
           14712         57.8822         62.4867         13.5515         6.02520
           14713         59.2138         63.6708         13.3678         6.44833
           14714         57.2345         62.4948         14.8308         5.06933
           14715         58.5621         63.6903         14.6697         5.54319
           14716         56.6170         62.5030         16.1690         4.00158
           14717         57.9303         63.7083         16.0344         4.53129
           14718         56.0512         62.5108         17.5684         2.81109
           14719         57.3374         63.7241         17.4647         3.40244
           14720         55.5642         62.5169         19.0321         1.48601
           14721         56.8075         63.7364         18.9635         2.14550
           14722         55.1898         62.5195         20.5644     12.7979E-03
           14723         56.3706         63.7437         20.5352     748.475E-03
           14724         55.3823         60.0771         17.2340         8.08920
           14725         55.0650         59.8936         17.5773         7.93118
           14726         54.9392         59.7758         17.9350         8.07444
           14727         55.8403         60.3817         16.5083         8.09263
           14728         55.5121         60.1946         16.8696         7.93877
           14729         56.3093         60.6871         15.7620         8.08146
           14730         55.9720         60.4975         16.1409         7.93451
           14731         56.7851         60.9905         14.9999         8.05327
           14732         56.4411         60.7999         15.3951         7.91580
           14733         57.2635         61.2891         14.2270         8.00645
           14734         56.9155         61.0993         14.6369         7.88073
           14735         57.7401         61.5799         13.4488         7.94022
           14736         57.3911         61.3927         13.8710         7.82810
           14737         58.2107         61.8600         12.6705         7.85461
           14738         57.8639         61.6777         13.1023         7.75747
           14739         58.6716         62.1269         11.8974         7.75040
           14740         58.3301         61.9517         12.3359         7.66914
           14741         59.1194         62.3784         11.1343         7.62900
           14742         58.7864         62.2124         11.5764         7.56401
           14743         59.5512         62.6127         10.3854         7.49239
           14744         59.2297         62.4579         10.8280         7.44358
           14745         59.9649         62.8284         9.65455         7.34288
           14746         59.6575         62.6866         10.0945         7.30976
           14747         60.3588         63.0247         8.94467         7.18308
           14748         60.0678         62.8975         9.37930         7.16477
           14749         60.7316         63.2013         8.25821         7.01570
           14750         60.4591         63.0899         8.68493         7.01106
           14751         61.0829         63.3580         7.59694         6.84348
           14752         60.8305         63.2635         8.01349         6.85114
           14753         61.4125         63.4953         6.96207         6.66908
           14754         61.1814         63.4184         7.36653         6.68753
           14755         61.7205         63.6138         6.35427         6.49501
           14756         61.5117         63.5550         6.74504         6.52269
           14757         62.0076         63.7143         5.77378         6.32361
           14758         61.8217         63.6739         6.14958         6.35890
           14759         62.2745         63.7980         5.22045         6.15698
           14760         62.1119         63.7760         5.58031         6.19831
           14761         62.5222         63.8661         4.69383         5.99699
           14762         62.3829         63.8623         5.03703         6.04284
           14763         62.7517         63.9197         4.19322         5.84526
           14764         62.6358         63.9338         4.51931         5.89420
           14765         62.9643         63.9601         3.71774         5.70316
           14766         62.8715         63.9918         4.02646         5.75386
           14767         63.1613         63.9887         3.26640         5.57186
           14768         63.0912         64.0375         3.55767         5.62309
           14769         63.3438         64.0067         2.83808         5.45228
           14770         63.2959         64.0721         3.11199         5.50296
           14771         63.5132         64.0154         2.43165         5.34518
           14772         63.4870         64.0967         2.68838         5.39432
           14773         63.6707         64.0157         2.04593         5.25113
           14774         63.6655         64.1125         2.28580         5.29787
           14775         63.8173         64.0090         1.67978         5.17054
           14776         63.8327         64.1206         1.90314         5.21414
           14777         63.9544         63.9961         1.33205         5.10370
           14778         63.9896         64.1220         1.53933         5.14350
           14779         64.0830         63.9779         1.00165         5.05078
           14780         64.1373         64.1177         1.19332         5.08624
           14781         64.2040         63.9555     687.520E-03         5.01182
           14782         64.2769         64.1085     864.067E-03         5.04248
           14783         64.3185         63.9294     388.670E-03         4.98682
           14784         64.4094         64.0952     550.605E-03         5.01230
           14785         64.4274         63.9004     104.169E-03         4.97568
           14786         64.5357         64.0786     252.004E-03         4.99568
           14787         64.5315         63.8693    -166.852E-03         4.97823
           14788         64.6566         64.0595    -32.6057E-03         4.99251
           14789         64.6316         63.8364    -425.198E-03         4.99428
           14790         64.7730         64.0383    -304.034E-03         5.00264
           14791         64.7283         63.8024    -671.601E-03         5.02356
           14792         64.8856         64.0157    -563.027E-03         5.02588
           14793         64.8225         63.7677    -906.730E-03         5.06579
           14794         64.9951         63.9921    -810.269E-03         5.06199
           14795         64.9146         63.7327        -1.13119         5.12066
           14796         65.1022         63.9681        -1.04638         5.11068
           14797         65.0052         63.6979        -1.34551         5.18781
           14798         65.2075         63.9440        -1.27192         5.17165
           14799         65.0949         63.6634        -1.55018         5.26690
           14800         65.3115         63.9202        -1.48738         5.24456
           14801         65.1841         63.6297        -1.74560         5.35753
           14802         65.4147         63.8970        -1.69319         5.32907
           14803         65.2732         63.5969        -1.93212         5.45930
           14804         65.5175         63.8747        -1.88974         5.42479
           14805         65.3625         63.5653        -2.11005         5.57181
           14806         65.6204         63.8537        -2.07733         5.53133
           14807         65.4525         63.5351        -2.27961         5.69464
           14808         65.7237         63.8340        -2.25623         5.64829
           14809         65.5434         63.5065        -2.44099         5.82733
           14810         65.8278         63.8160        -2.42664         5.77526
           14811         65.6353         63.4797        -2.59431         5.96945
           14812         65.9328         63.7999        -2.58870         5.91178
           14813         65.7286         63.4548        -2.73964         6.12054
           14814         66.0391         63.7858        -2.74251         6.05743
           14815         65.8233         63.4320        -2.87700         6.28012
           14816         66.1467         63.7738        -2.88811         6.21174
           14817         65.9195         63.4113        -3.00636         6.44770
           14818         66.2558         63.7642        -3.02547         6.37423
           14819         66.0174         63.3929        -3.12763         6.62278
           14820         66.3666         63.7570        -3.15454         6.54442
           14821         66.1168         63.3769        -3.24067         6.80484
           14822         66.4789         63.7524        -3.27518         6.72180
           14823         66.2177         63.3633        -3.34529         6.99336
           14824         66.5929         63.7505        -3.38724         6.90586
           14825         66.3201         63.3523        -3.44125         7.18777
           14826         66.7083         63.7513        -3.49048         7.09604
           14827         66.4238         63.3439        -3.52824         7.38751
           14828         66.8252         63.7551        -3.58461         7.29180
           14829         66.5285         63.3383        -3.60592         7.59199
           14830         66.9432         63.7617        -3.66932         7.49256
           14831         66.6340         63.3353        -3.67389         7.80058
           14832         67.0623         63.7714        -3.74420         7.69772
           14833         66.7400         63.3352        -3.73169         8.01265
           14834         67.1819         63.7842        -3.80882         7.90664
           14835         66.8461         63.3380        -3.77879         8.22753
           14836         67.3019         63.8001        -3.86267         8.11869
           14837         66.9517         63.3436        -3.81464         8.44451
           14838         67.4217         63.8191        -3.90520         8.33317
           14839         67.0563         63.3522        -3.83861         8.66288
           14840         67.5408         63.8414        -3.93580         8.54938
           14841         67.1594         63.3637        -3.85000         8.88186
           14842         67.6587         63.8670        -3.95379         8.76659
           14843         67.2603         63.3781        -3.84808         9.10067
           14844         67.7746         63.8958        -3.95843         8.98401
           14845         67.3581         63.3955        -3.83203         9.31846
           14846         67.8879         63.9278        -3.94894         9.20083
           14847         67.4520         63.4159        -3.80099         9.53437
           14848         67.9978         63.9631        -3.92445         9.41620
           14849         67.5412         63.4392        -3.75403         9.74747
           14850         68.1032         64.0016        -3.88404         9.62924
           14851         67.6245         63.4653        -3.69015         9.95680
           14852         68.2033         64.0434        -3.82673         9.83902
           14853         67.7009         63.4943        -3.60829         10.1614
           14854         68.2970         64.0882        -3.75147         10.0445
           14855         67.7692         63.5261        -3.50733         10.3601
           14856         68.3831         64.1362        -3.65715         10.2448
           14857         67.8281         63.5605        -3.38608         10.5519
           14858         68.4604         64.1871        -3.54258         10.4387
           14859         67.8763         63.5975        -3.24330         10.7356
           14860         68.5275         64.2409        -3.40651         10.6252
           14861         67.9123         63.6370        -3.07767         10.9100
           14862         68.5831         64.2975        -3.24765         10.8030
           14863         67.9347         63.6789        -2.88781         11.0738
           14864         68.6257         64.3567        -3.06460         10.9709
           14865         67.9417         63.7229        -2.67227         11.2257
           14866         68.6538         64.4184        -2.85594         11.1277
           14867         67.9319         63.7689        -2.42958         11.3642
           14868         68.6656         64.4824        -2.62015         11.2719
           14869         67.9034         63.8167        -2.15818         11.4880
           14870         68.6595         64.5484        -2.35570         11.4022
           14871         67.8546         63.8660        -1.85646         11.5954
           14872         68.6339         64.6163        -2.06097         11.5169
           14873         67.7836         63.9168        -1.52279         11.6848
           14874         68.5868         64.6858        -1.73429         11.6147
           14875         67.6886         63.9686        -1.15548         11.7546
           14876         68.5166         64.7567        -1.37395         11.6937
           14877         67.5678         64.0213    -752.812E-03         11.8029
           14878         68.4213         64.8286    -978.224E-03         11.7524
           14879         67.4195         64.0745    -313.047E-03         11.8278
           14880         68.2993         64.9013    -545.320E-03         11.7887
           14881         67.2419         64.1280     165.575E-03         11.8274
           14882         68.1487         64.9745    -73.4397E-03         11.8008
           14883         67.0334         64.1816     684.805E-03         11.7995
           14884         67.9678         65.0478     439.237E-03         11.7866
           14885         66.7923         64.2348         1.24640         11.7419
           14886         67.7550         65.1210     994.527E-03         11.7440
           14887         66.5173         64.2875         1.85210         11.6521
           14888         67.5088         65.1938         1.59426         11.6706
           14889         66.2072         64.3394         2.50360         11.5276
           14890         67.2280         65.2658         2.24023         11.5638
           14891         65.8610         64.3902         3.20258         11.3655
           14892         66.9112         65.3368         2.93423         11.4211
           14893         65.4780         64.4399         3.95065         11.1630
           14894         66.5578         65.4064         3.67802         11.2394
           14895         65.0578         64.4881         4.74938         10.9168
           14896         66.1671         65.4746         4.47332         11.0157
           14897         64.6006         64.5348         5.60026         10.6232
           14898         65.7390         65.5410         5.32180         10.7466
           14899         64.1071         64.5798         6.50474         10.2784
           14900         65.2737         65.6054         6.22512         10.4282
           14901         63.5786         64.6232         7.46423         9.87807
           14902         64.7723         65.6677         7.18488         10.0565
           14903         63.0171         64.6648         8.48007         9.41751
           14904         64.2364         65.7278         8.20270         9.62690
           14905         62.4258         64.7047         9.55363         8.89144
           14906         63.6684         65.7854         9.28019         9.13446
           14907         61.8089         64.7428         10.6863         8.29405
           14908         63.0719         65.8405         10.4190         8.57362
           14909         61.1723         64.7791         11.8795         7.61889
           14910         62.4518         65.8929         11.6209         7.93827
           14911         60.5236         64.8134         13.1350         6.85880
           14912         61.8148         65.9421         12.8877         7.22166
           14913         59.8728         64.8453         14.4545         6.00587
           14914         61.1694         65.9878         14.2217         6.41631
           14915         59.2328         64.8745         15.8404         5.05138
           14916         60.5271         66.0295         15.6253         5.51403
           14917         58.6202         64.9000         17.2953         3.98575
           14918         59.9022         66.0661         17.1013         4.50580
           14919         58.0561         64.9207         18.8225         2.79854
           14920         59.3135         66.0966         18.6532         3.38182
           14921         57.5670         64.9349         20.4261         1.47844
           14922         58.7845         66.1191         20.2851         2.13141
           14923         57.1860         64.9403         22.1113     12.5737E-03
           14924         58.3448         66.1317         22.0020     743.189E-03
           14925         55.1996         60.0181         17.2258         7.78773
           14926         54.8954         59.8446         17.5667         7.63337
           14927         54.7625         59.7202         17.9180         7.77695
           14928         55.6511         60.3190         16.5121         7.78921
           14929         55.3369         60.1424         16.8684         7.63818
           14930         56.1138         60.6205         15.7805         7.77849
           14931         55.7912         60.4419         16.1518         7.63321
           14932         56.5841         60.9205         15.0349         7.75340
           14933         56.2550         60.7410         15.4203         7.61611
           14934         57.0582         61.2163         14.2798         7.71244
           14935         56.7250         61.0375         14.6778         7.58514
           14936         57.5322         61.5055         13.5197         7.65478
           14937         57.1974         61.3290         13.9285         7.53915
           14938         58.0025         61.7855         12.7593         7.58029
           14939         57.6689         61.6133         13.1767         7.47762
           14940         58.4656         62.0542         12.0031         7.48947
           14941         58.1360         61.8880         12.4265         7.40065
           14942         58.9183         62.3094         11.2554         7.38341
           14943         58.5956         62.1512         11.6822         7.30889
           14944         59.3580         62.5495         10.5200         7.26364
           14945         59.0447         62.4011         10.9474         7.20348
           14946         59.7824         62.7733         9.80030         7.13208
           14947         59.4810         62.6362         10.2258         7.08598
           14948         60.1897         62.9798         9.09915         6.99089
           14949         59.9025         62.8556         9.52013         6.95821
           14950         60.5788         63.1685         8.41886         6.84239
           14951         60.3077         63.0584         8.83307         6.82223
           14952         60.9487         63.3393         7.76124         6.68895
           14953         60.6953         63.2443         8.16659         6.68020
           14954         61.2990         63.4923         7.12754         6.53292
           14955         61.0647         63.4132         7.52224         6.53434
           14956         61.6298         63.6280         6.51862         6.37656
           14957         61.4156         63.5653         6.90111         6.38680
           14958         61.9412         63.7470         5.93486         6.22201
           14959         61.7479         63.7011         6.30388         6.23967
           14960         62.2338         63.8502         5.37634         6.07120
           14961         62.0619         63.8212         5.73088         6.09490
           14962         62.5084         63.9385         4.84283         5.92592
           14963         62.3582         63.9265         5.18213         5.95427
           14964         62.7657         64.0131         4.33385         5.78770
           14965         62.6372         64.0179         4.65736         5.81942
           14966         63.0067         64.0750         3.84874         5.65791
           14967         62.8999         64.0963         4.15612         5.69175
           14968         63.2326         64.1254         3.38671         5.53770
           14969         63.1473         64.1628         3.67777         5.57252
           14970         63.4443         64.1653         2.94685         5.42805
           14971         63.3802         64.2186         3.22156         5.46279
           14972         63.6431         64.1960         2.52819         5.32972
           14973         63.5997         64.2646         2.78664         5.36344
           14974         63.8299         64.2185         2.12973         5.24337
           14975         63.8069         64.3020         2.37211         5.27521
           14976         64.0061         64.2338         1.75045         5.16945
           14977         64.0029         64.3317         1.97703         5.19867
           14978         64.1725         64.2429         1.38933         5.10833
           14979         64.1886         64.3547         1.60044         5.13427
           14980         64.3303         64.2467         1.04539         5.06024
           14981         64.3651         64.3719         1.24140         5.08232
           14982         64.4804         64.2460     717.677E-03         5.02530
           14983         64.5334         64.3842     899.001E-03         5.04305
           14984         64.6237         64.2416     405.267E-03         5.00358
           14985         64.6944         64.3924     572.338E-03         5.01657
           14986         64.7612         64.2343     107.301E-03         4.99503
           14987         64.8490         64.3973     260.564E-03         5.00292
           14988         64.8937         64.2246    -177.032E-03         4.99956
           14989         64.9980         64.3995    -37.1248E-03         5.00208
           14990         65.0219         64.2132    -448.486E-03         5.01703
           14991         65.1424         64.3996    -321.483E-03         5.01395
           14992         65.1467         64.2007    -707.753E-03         5.04723
           14993         65.2828         64.3983    -593.211E-03         5.03838
           14994         65.2686         64.1874    -955.467E-03         5.08993
           14995         65.4200         64.3960    -852.950E-03         5.07517
           14996         65.3883         64.1740        -1.19220         5.14486
           14997         65.5545         64.3933        -1.10129         5.12411
           14998         65.5064         64.1606        -1.41847         5.21171
           14999         65.6871         64.3906        -1.33875         5.18492
           15000         65.6235         64.1478        -1.63472         5.29016
           15001         65.8183         64.3883        -1.56581         5.25731
           15002         65.7399         64.1359        -1.84135         5.37986
           15003         65.9485         64.3868        -1.78287         5.34095
           15004         65.8561         64.1251        -2.03870         5.48044
           15005         66.0783         64.3863        -1.99031         5.43551
           15006         65.9726         64.1158        -2.22704         5.59152
           15007         66.2081         64.3873        -2.18840         5.54063
           15008         66.0896         64.1081        -2.40659         5.71270
           15009         66.3382         64.3899        -2.37740         5.65592
           15010         66.2074         64.1024        -2.57754         5.84355
           15011         66.4690         64.3944        -2.55749         5.78099
           15012         66.3264         64.0987        -2.73997         5.98366
           15013         66.6008         64.4011        -2.72880         5.91542
           15014         66.4466         64.0973        -2.89396         6.13257
           15015         66.7338         64.4102        -2.89142         6.05879
           15016         66.5684         64.0983        -3.03951         6.28982
           15017         66.8681         64.4218        -3.04536         6.21065
           15018         66.6917         64.1020        -3.17656         6.45495
           15019         67.0040         64.4361        -3.19059         6.37054
           15020         66.8166         64.1084        -3.30502         6.62747
           15021         67.1415         64.4533        -3.32704         6.53800
           15022         66.9431         64.1176        -3.42473         6.80686
           15023         67.2806         64.4736        -3.45457         6.71252
           15024         67.0713         64.1298        -3.53549         6.99260
           15025         67.4213         64.4969        -3.57298         6.89359
           15026         67.2009         64.1451        -3.63702         7.18415
           15027         67.5636         64.5236        -3.68202         7.08070
           15028         67.3318         64.1636        -3.72901         7.38095
           15029         67.7073         64.5536        -3.78141         7.27329
           15030         67.4638         64.1853        -3.81109         7.58241
           15031         67.8522         64.5871        -3.87077         7.47079
           15032         67.5967         64.2103        -3.88283         7.78793
           15033         67.9981         64.6242        -3.94971         7.67262
           15034         67.7301         64.2388        -3.94374         7.99687
           15035         68.1447         64.6649        -4.01775         7.87815
           15036         67.8635         64.2706        -3.99330         8.20857
           15037         68.2915         64.7093        -4.07436         8.08675
           15038         67.9965         64.3060        -4.03088         8.42235
           15039         68.4382         64.7575        -4.11897         8.29774
           15040         68.1286         64.3449        -4.05584         8.63748
           15041         68.5842         64.8094        -4.15092         8.51044
           15042         68.2591         64.3873        -4.06746         8.85321
           15043         68.7289         64.8652        -4.16951         8.72410
           15044         68.3873         64.4333        -4.06494         9.06876
           15045         68.8717         64.9248        -4.17396         8.93797
           15046         68.5124         64.4828        -4.04746         9.28331
           15047         69.0117         64.9883        -4.16346         9.15124
           15048         68.6335         64.5358        -4.01409         9.49599
           15049         69.1482         65.0555        -4.13710         9.36309
           15050         68.7498         64.5924        -3.96387         9.70590
           15051         69.2803         65.1266        -4.09392         9.57264
           15052         68.8602         64.6523        -3.89576         9.91209
           15053         69.4069         65.2014        -4.03289         9.77896
           15054         68.9635         64.7157        -3.80864         10.1136
           15055         69.5269         65.2798        -3.95292         9.98112
           15056         69.0585         64.7823        -3.70135         10.3093
           15057         69.6393         65.3619        -3.85284         10.1781
           15058         69.1441         64.8522        -3.57266         10.4982
           15059         69.7427         65.4474        -3.73143         10.3688
           15060         69.2187         64.9251        -3.42125         10.6792
           15061         69.8358         65.5364        -3.58739         10.5522
           15062         69.2810         65.0009        -3.24574         10.8509
           15063         69.9172         65.6285        -3.41934         10.7271
           15064         69.3295         65.0795        -3.04472         11.0123
           15065         69.9854         65.7238        -3.22586         10.8923
           15066         69.3625         65.1607        -2.81667         11.1619
           15067         70.0389         65.8218        -3.00545         11.0464
           15068         69.3783         65.2443        -2.56002         11.2983
           15069         70.0759         65.9226        -2.75653         11.1883
           15070         69.3753         65.3299        -2.27318         11.4202
           15071         70.0949         66.0258        -2.47749         11.3164
           15072         69.3518         65.4175        -1.95444         11.5260
           15073         70.0941         66.1311        -2.16665         11.4293
           15074         69.3058         65.5067        -1.60210         11.6141
           15075         70.0717         66.2383        -1.82225         11.5254
           15076         69.2357         65.5972        -1.21437         11.6828
           15077         70.0259         66.3471        -1.44252         11.6032
           15078         69.1396         65.6887    -789.453E-03         11.7303
           15079         69.9549         66.4572        -1.02560         11.6608
           15080         69.0157         65.7809    -325.495E-03         11.7548
           15081         69.8569         66.5682    -569.626E-03         11.6964
           15082         68.8622         65.8734     179.377E-03         11.7542
           15083         69.7301         66.6798    -72.6784E-03         11.7082
           15084         68.6776         65.9660     727.045E-03         11.7264
           15085         69.5728         66.7916     467.187E-03         11.6940
           15086         68.4602         66.0583         1.31941         11.6692
           15087         69.3834         66.9032         1.05193         11.6517
           15088         68.2085         66.1499         1.95837         11.5802
           15089         69.1603         67.0144         1.68352         11.5789
           15090         67.9214         66.2405         2.64582         11.4567
           15091         68.9022         67.1246         2.36396         11.4731
           15092         67.5977         66.3298         3.38363         11.2960
           15093         68.6079         67.2335         3.09522         11.3317
           15094         67.2369         66.4175         4.17369         11.0951
           15095         68.2765         67.3408         3.87930         11.1517
           15096         66.8383         66.5032         5.01781         10.8506
           15097         67.9073         67.4461         4.71817         10.9299
           15098         66.4022         66.5868         5.91782         10.5589
           15099         67.5002         67.5491         5.61382         10.6629
           15100         65.9290         66.6680         6.87554         10.2162
           15101         67.0554         67.6494         6.56824         10.3470
           15102         65.4198         66.7464         7.89277         9.81820
           15103         66.5736         67.7467         7.58342         9.97795
           15104         64.8768         66.8219         8.97134         9.36004
           15105         66.0564         67.8405         8.66141         9.55132
           15106         64.3028         66.8942         10.1132         8.83654
           15107         65.5061         67.9306         9.80431         9.06210
           15108         63.7019         66.9629         11.3202         8.24191
           15109         64.9262         68.0166         11.0143         8.50480
           15110         63.0798         67.0277         12.5945         7.56979
           15111         64.3214         68.0978         12.2938         7.87340
           15112         62.4439         67.0881         13.9385         6.81315
           15113         63.6981         68.1737         13.6452         7.16126
           15114         61.8040         67.1433         15.3548         5.96428
           15115         63.0649         68.2435         15.0716         6.36109
           15116         61.1728         67.1924         16.8464         5.01470
           15117         62.4328         68.3062         16.5759         5.46492
           15118         60.5666         67.2342         18.4168         3.95518
           15119         61.8161         68.3605         18.1619         4.46404
           15120         60.0060         67.2671         20.0702         2.77570
           15121         61.2332         68.4048         19.8339         3.34904
           15122         59.5174         67.2890         21.8115         1.46549
           15123         60.7073         68.4369         21.5967         2.10972
           15124         59.1329         67.2970         23.6467     12.3159E-03
           15125         60.2673         68.4545         23.4560     735.243E-03
           15126         55.0365         59.9749         17.2205         7.48951
           15127         54.7438         59.8099         17.5595         7.33822
           15128         54.6042         59.6797         17.9056         7.48219
           15129         55.4830         60.2727         16.5167         7.48927
           15130         55.1810         60.1052         16.8688         7.34061
           15131         55.9407         60.5712         15.7973         7.47890
           15132         55.6308         60.4019         16.1623         7.33499
           15133         56.4065         60.8682         15.0658         7.45643
           15134         56.0904         60.6984         15.4429         7.31924
           15135         56.8770         61.1618         14.3258         7.42045
           15136         56.5567         60.9926         14.7138         7.29177
           15137         57.3490         61.4497         13.5815         7.37014
           15138         57.0267         61.2825         13.9788         7.25147
           15139         57.8190         61.7297         12.8366         7.30524
           15140         57.4972         61.5662         13.2414         7.19778
           15141         58.2839         61.9998         12.0954         7.22605
           15142         57.9651         61.8416         12.5055         7.13066
           15143         58.7409         62.2583         11.3614         7.13338
           15144         58.4274         62.1069         11.7746         7.05056
           15145         59.1872         62.5035         10.6381         7.02843
           15146         58.8816         62.3607         11.0521         6.95834
           15147         59.6209         62.7342         9.92873         6.91278
           15148         59.3253         62.6014         10.3411         6.85525
           15149         60.0400         62.9496         9.23580         6.78822
           15150         59.7566         62.8282         9.64438         6.74280
           15151         60.4432         63.1490         8.56154         6.65672
           15152         60.1739         63.0402         8.96426         6.62272
           15153         60.8295         63.3322         7.90773         6.52034
           15154         60.5759         63.2369         8.30267         6.49686
           15155         61.1984         63.4993         7.27567         6.38114
           15156         60.9618         63.4183         7.66114         6.36715
           15157         61.5496         63.6504         6.66628         6.24115
           15158         61.3311         63.5844         7.04083         6.23550
           15159         61.8831         63.7861         6.08011         6.10229
           15160         61.6835         63.7354         6.44250         6.10377
           15161         62.1992         63.9071         5.51738         5.96636
           15162         62.0193         63.8719         5.86660         5.97375
           15163         62.4985         64.0141         4.97805         5.83500
           15164         62.3385         63.9946         5.31329         5.84708
           15165         62.7814         64.1080         4.46182         5.70970
           15166         62.6417         64.1042         4.78250         5.72528
           15167         63.0489         64.1898         3.96822         5.59177
           15168         62.9295         64.2016         4.27391         5.60971
           15169         63.3018         64.2606         3.49664         5.48234
           15170         63.2027         64.2876         3.78708         5.50158
           15171         63.5411         64.3213         3.04635         5.38238
           15172         63.4620         64.3632         3.32142         5.40193
           15173         63.7677         64.3729         2.61654         5.29272
           15174         63.7084         64.4295         2.87624         5.31165
           15175         63.9826         64.4164         2.20635         5.21399
           15176         63.9428         64.4873         2.45077         5.23149
           15177         64.1869         64.4529         1.81491         5.14675
           15178         64.1662         64.5376         2.04423         5.16206
           15179         64.3815         64.4832         1.44131         5.09138
           15180         64.3794         64.5814         1.65578         5.10385
           15181         64.5675         64.5081         1.08468         5.04817
           15182         64.5835         64.6194         1.28459         5.05722
           15183         64.7456         64.5286     744.157E-03         5.01733
           15184         64.7794         64.6525     929.838E-03         5.02244
           15185         64.9170         64.5454     418.901E-03         4.99894
           15186         64.9679         64.6815     590.719E-03         4.99969
           15187         65.0823         64.5591     108.124E-03         4.99305
           15188         65.1500         64.7072     266.461E-03         4.98906
           15189         65.2425         64.5705    -188.924E-03         4.99961
           15190         65.3265         64.7302    -43.6753E-03         4.99057
           15191         65.3982         64.5802    -472.944E-03         5.01852
           15192         65.4981         64.7512    -340.384E-03         5.00417
           15193         65.5504         64.5888    -744.583E-03         5.04963
           15194         65.6656         64.7708    -624.316E-03         5.02977
           15195         65.6995         64.5966        -1.00444         5.09277
           15196         65.8298         64.7894    -896.069E-03         5.06722
           15197         65.8463         64.6043        -1.25304         5.14769
           15198         65.9912         64.8077        -1.15619         5.11634
           15199         65.9914         64.6123        -1.49089         5.21413
           15200         66.1505         64.8260        -1.40518         5.17690
           15201         66.1352         64.6209        -1.71840         5.29181
           15202         66.3082         64.8449        -1.64347         5.24863
           15203         66.2784         64.6305        -1.93594         5.38041
           15204         66.4650         64.8647        -1.87146         5.33126
           15205         66.4212         64.6415        -2.14384         5.47959
           15206         66.6212         64.8858        -2.08947         5.42448
           15207         66.5643         64.6542        -2.34235         5.58899
           15208         66.7773         64.9084        -2.29779         5.52794
           15209         66.7078         64.6687        -2.53168         5.70824
           15210         66.9337         64.9330        -2.49664         5.64131
           15211         66.8521         64.6855        -2.71199         5.83694
           15212         67.0907         64.9598        -2.68618         5.76419
           15213         66.9975         64.7046        -2.88336         5.97469
           15214         67.2486         64.9890        -2.86654         5.89621
           15215         67.1441         64.7264        -3.04583         6.12105
           15216         67.4077         65.0208        -3.03777         6.03695
           15217         67.2922         64.7510        -3.19941         6.27559
           15218         67.5681         65.0556        -3.19989         6.18599
           15219         67.4419         64.7786        -3.34403         6.43784
           15220         67.7300         65.0935        -3.35284         6.34289
           15221         67.5932         64.8094        -3.47955         6.60734
           15222         67.8935         65.1347        -3.49653         6.50718
           15223         67.7461         64.8435        -3.60582         6.78357
           15224         68.0586         65.1793        -3.63080         6.67839
           15225         67.9007         64.8810        -3.72260         6.96604
           15226         68.2254         65.2275        -3.75544         6.85602
           15227         68.0567         64.9221        -3.82962         7.15422
           15228         68.3937         65.2794        -3.87019         7.03956
           15229         68.2141         64.9668        -3.92652         7.34755
           15230         68.5634         65.3352        -3.97473         7.22847
           15231         68.3725         65.0153        -4.01293         7.54545
           15232         68.7343         65.3950        -4.06867         7.42220
           15233         68.5318         65.0677        -4.08838         7.74734
           15234         68.9061         65.4589        -4.15159         7.62017
           15235         68.6916         65.1241        -4.15236         7.95258
           15236         69.0787         65.5269        -4.22298         7.82176
           15237         68.8514         65.1844        -4.20431         8.16054
           15238         69.2514         65.5991        -4.28231         8.02637
           15239         69.0108         65.2487        -4.24360         8.37053
           15240         69.4240         65.6756        -4.32894         8.23331
           15241         69.1692         65.3172        -4.26954         8.58184
           15242         69.5959         65.7565        -4.36222         8.44193
           15243         69.3260         65.3897        -4.28136         8.79375
           15244         69.7664         65.8417        -4.38139         8.65149
           15245         69.4804         65.4664        -4.27827         9.00547
           15246         69.9349         65.9313        -4.38566         8.86125
           15247         69.6317         65.5471        -4.25936         9.21620
           15248         70.1006         66.0252        -4.37416         9.07042
           15249         69.7789         65.6319        -4.22370         9.42509
           15250         70.2626         66.1235        -4.34596         9.27820
           15251         69.9212         65.7208        -4.17027         9.63126
           15252         70.4201         66.2262        -4.30005         9.48371
           15253         70.0574         65.8136        -4.09799         9.83377
           15254         70.5721         66.3331        -4.23537         9.68606
           15255         70.1865         65.9103        -4.00570         10.0317
           15256         70.7174         66.4441        -4.15077         9.88432
           15257         70.3071         66.0108        -3.89219         10.2239
           15258         70.8548         66.5593        -4.04504         10.0775
           15259         70.4182         66.1150        -3.75616         10.4095
           15260         70.9832         66.6784        -3.91692         10.2646
           15261         70.5181         66.2227        -3.59626         10.5872
           15262         71.1011         66.8014        -3.76503         10.4444
           15263         70.6056         66.3338        -3.41106         10.7559
           15264         71.2072         66.9280        -3.58798         10.6159
           15265         70.6790         66.4481        -3.19906         10.9143
           15266         71.2999         67.0581        -3.38425         10.7779
           15267         70.7367         66.5653        -2.95869         11.0613
           15268         71.3777         67.1915        -3.15230         10.9292
           15269         70.7772         66.6852        -2.68833         11.1953
           15270         71.4389         67.3278        -2.89048         11.0683
           15271         70.7987         66.8076        -2.38629         11.3150
           15272         71.4819         67.4670        -2.59712         11.1939
           15273         70.7994         66.9321        -2.05081         11.4189
           15274         71.5050         67.6086        -2.27044         11.3047
           15275         70.7775         67.0585        -1.68008         11.5054
           15276         71.5062         67.7523        -1.90864         11.3989
           15277         70.7313         67.1865        -1.27225         11.5729
           15278         71.4839         67.8979        -1.50981         11.4751
           15279         70.6588         67.3156    -825.401E-03         11.6195
           15280         71.4362         68.0449        -1.07205         11.5316
           15281         70.5584         67.4456    -337.582E-03         11.6434
           15282         71.3613         68.1930    -593.354E-03         11.5664
           15283         70.4283         67.5760     193.202E-03         11.6425
           15284         71.2575         68.3418    -71.7007E-03         11.5777
           15285         70.2667         67.7064     768.965E-03         11.6149
           15286         71.1229         68.4908     494.983E-03         11.5635
           15287         70.0721         67.8365         1.39176         11.5583
           15288         70.9560         68.6396         1.10880         11.5215
           15289         69.8430         67.9658         2.06365         11.4701
           15290         70.7552         68.7879         1.77188         11.4495
           15291         69.5781         68.0939         2.78672         11.3479
           15292         70.5191         68.9350         2.48641         11.3450
           15293         69.2763         68.2204         3.56307         11.1889
           15294         70.2465         69.0807         3.25457         11.2051
           15295         68.9370         68.3448         4.39481         10.9899
           15296         69.9364         69.2244         4.07858         11.0271
           15297         68.5594         68.4669         5.28405         10.7477
           15298         69.5882         69.3656         4.96068         10.8078
           15299         68.1437         68.5861         6.23293         10.4588
           15300         69.2015         69.5038         5.90316         10.5436
           15301         67.6903         68.7020         7.24363         10.1191
           15302         68.7765         69.6387         6.90833         10.2310
           15303         67.2002         68.8142         8.31836         9.72448
           15304         68.3138         69.7696         7.97858         9.86566
           15305         66.6753         68.9222         9.45940         9.27008
           15306         67.8150         69.8959         9.11636         9.44322
           15307         66.1184         69.0256         10.6691         8.75075
           15308         67.2822         70.0171         10.3242         8.95871
           15309         65.5335         69.1236         11.9501         8.16080
           15310         66.7187         70.1326         11.6049         8.40673
           15311         64.9260         69.2156         13.3050         7.49397
           15312         66.1292         70.2414         12.9614         7.78134
           15313         64.3033         69.3008         14.7369         6.74339
           15314         65.5200         70.3427         14.3967         7.07608
           15315         63.6750         69.3781         16.2490         5.90156
           15316         64.8994         70.4353         15.9143         6.28384
           15317         63.0536         69.4461         17.8451         4.96029
           15318         64.2783         70.5180         17.5182         5.39691
           15319         62.4550         69.5033         19.5295         3.91069
           15320         63.6709         70.5890         19.2126         4.40691
           15321         61.8999         69.5477         21.3070         2.74319
           15322         63.0953         70.6463         21.0026         3.30482
           15323         61.4138         69.5768         23.1833         1.44749
           15324         62.5742         70.6875         22.8937         2.08090
           15325         61.0286         69.5872         25.1652     12.0251E-03
           15326         62.1364         70.7097         24.8922     724.857E-03
           15327         54.8911         59.9454         17.2176         7.19388
           15328         54.6082         59.7876         17.5553         7.04513
           15329         54.4625         59.6522         17.8972         7.18956
           15330         55.3336         60.2408         16.5219         7.19215
           15331         55.0422         60.0809         16.8707         7.04543
           15332         55.7873         60.5367         15.8128         7.18205
           15333         55.4885         60.3755         16.1725         7.03923
           15334         56.2495         60.8315         15.0932         7.16181
           15335         55.9448         60.6698         15.4632         7.02464
           15336         56.7173         61.1233         14.3662         7.13011
           15337         56.4084         60.9622         14.7455         7.00017
           15338         57.1876         61.4101         13.6353         7.08612
           15339         56.8764         61.2509         14.0227         6.96478
           15340         57.6575         61.6902         12.9040         7.02952
           15341         57.3462         61.5342         13.2979         6.91788
           15342         58.1241         61.9617         12.1759         6.96045
           15343         57.8148         61.8103         12.5744         6.85933
           15344         58.5847         62.2229         11.4541         6.87950
           15345         58.2796         62.0776         11.8553         6.78941
           15346         59.0369         62.4725         10.7418         6.78761
           15347         58.7383         62.3348         11.1438         6.70878
           15348         59.4786         62.7094         10.0418         6.68605
           15349         59.1885         62.5805         10.4424         6.61843
           15350         59.9080         62.9325         9.35647         6.57634
           15351         59.6284         62.8137         9.75383         6.51960
           15352         60.3237         63.1414         8.68799         6.46013
           15353         60.0563         63.0338         9.08019         6.41376
           15354         60.7247         63.3357         8.03801         6.33920
           15355         60.4711         63.2403         8.42332         6.30248
           15356         61.1102         63.5153         7.40786         6.21537
           15357         60.8717         63.4328         7.78471         6.18743
           15358         61.4798         63.6804         6.79851         6.09042
           15359         61.2576         63.6114         7.16552         6.07030
           15360         61.8333         63.8313         6.21059         5.96610
           15361         61.6283         63.7763         6.56659         5.95275
           15362         62.1708         63.9684         5.64446         5.84405
           15363         61.9837         63.9278         5.98844         5.83641
           15364         62.4927         64.0926         5.10020         5.72580
           15365         62.3240         64.0664         5.43136         5.72277
           15366         62.7994         64.2044         4.57769         5.61273
           15367         62.6495         64.1928         4.89539         5.61325
           15368         63.0915         64.3048         4.07661         5.50612
           15369         62.9605         64.3077         4.38039         5.50914
           15370         63.3697         64.3946         3.59651         5.40705
           15371         63.2577         64.4119         3.88603         5.41158
           15372         63.6348         64.4748         3.13680         5.31648
           15373         63.5418         64.5062         3.41188         5.32159
           15374         63.8877         64.5462         2.69684         5.23524
           15375         63.8135         64.5915         2.95740         5.24006
           15376         64.1293         64.6098         2.27589         5.16400
           15377         64.0736         64.6687         2.52195         5.16774
           15378         64.3604         64.6665         1.87320         5.10332
           15379         64.3230         64.7386         2.10486         5.10525
           15380         64.5820         64.7171         1.48800         5.05364
           15381         64.5625         64.8022         1.70542         5.05311
           15382         64.7949         64.7624         1.11950         5.01530
           15383         64.7930         64.8601         1.32291         5.01171
           15384         65.0002         64.8034     766.930E-03         4.98853
           15385         65.0154         64.9133     956.589E-03         4.98138
           15386         65.1985         64.8406     429.542E-03         4.97349
           15387         65.2305         64.9625     605.751E-03         4.96232
           15388         65.3908         64.8749     106.615E-03         4.97024
           15389         65.4391         65.0083     269.696E-03         4.95466
           15390         65.5779         64.9069    -202.537E-03         4.97881
           15391         65.6420         65.0516    -52.2466E-03         4.95849
           15392         65.7604         64.9372    -498.562E-03         4.99915
           15393         65.8400         65.0929    -360.714E-03         4.97379
           15394         65.9393         64.9664    -782.057E-03         5.03114
           15395         66.0339         65.1328    -656.301E-03         5.00051
           15396         66.1150         64.9950        -1.05358         5.07464
           15397         66.2243         65.1719    -939.562E-03         5.03855
           15398         66.2882         65.0235        -1.31362         5.12946
           15399         66.4118         65.2107        -1.21101         5.08776
           15400         66.4596         65.0523        -1.56265         5.19538
           15401         66.5972         65.2498        -1.47109         5.14795
           15402         66.6297         65.0820        -1.80105         5.27215
           15403         66.7809         65.2894        -1.72022         5.21889
           15404         66.7989         65.1129        -2.02918         5.35947
           15405         66.9635         65.3301        -1.95877         5.30035
           15406         66.9679         65.1452        -2.24733         5.45704
           15407         67.1455         65.3723        -2.18703         5.39203
           15408         67.1368         65.1795        -2.45574         5.56453
           15409         67.3273         65.4163        -2.40527         5.49362
           15410         67.3062         65.2159        -2.65459         5.68159
           15411         67.5093         65.4624        -2.61369         5.60481
           15412         67.4764         65.2548        -2.84402         5.80785
           15413         67.6918         65.5110        -2.81243         5.72524
           15414         67.6475         65.2964        -3.02411         5.94291
           15415         67.8752         65.5623        -3.00159         5.85455
           15416         67.8199         65.3410        -3.19489         6.08638
           15417         68.0597         65.6166        -3.18123         5.99233
           15418         67.9937         65.3887        -3.35632         6.23782
           15419         68.2455         65.6741        -3.35132         6.13820
           15420         68.1691         65.4398        -3.50833         6.39679
           15421         68.4327         65.7351        -3.51181         6.29172
           15422         68.3460         65.4945        -3.65077         6.56284
           15423         68.6215         65.7997        -3.66257         6.45245
           15424         68.5246         65.5529        -3.78346         6.73548
           15425         68.8119         65.8682        -3.80343         6.61993
           15426         68.7047         65.6152        -3.90616         6.91422
           15427         69.0039         65.9407        -3.93417         6.79367
           15428         68.8863         65.6815        -4.01854         7.09853
           15429         69.1973         66.0173        -4.05450         6.97319
           15430         69.0692         65.7520        -4.12027         7.28789
           15431         69.3922         66.0983        -4.16408         7.15795
           15432         69.2532         65.8267        -4.21091         7.48172
           15433         69.5882         66.1837        -4.26250         7.34741
           15434         69.4380         65.9058        -4.28999         7.67946
           15435         69.7851         66.2737        -4.34931         7.54101
           15436         69.6233         65.9893        -4.35699         7.88048
           15437         69.9827         66.3683        -4.42399         7.73817
           15438         69.8085         66.0774        -4.41129         8.08415
           15439         70.1804         66.4676        -4.48597         7.93826
           15440         69.9933         66.1700        -4.45225         8.28981
           15441         70.3779         66.5717        -4.53459         8.14064
           15442         70.1770         66.2672        -4.47913         8.49677
           15443         70.5745         66.6807        -4.56916         8.34465
           15444         70.3590         66.3690        -4.49117         8.70430
           15445         70.7698         66.7945        -4.58890         8.54958
           15446         70.5386         66.4755        -4.48749         8.91166
           15447         70.9630         66.9132        -4.59299         8.75471
           15448         70.7149         66.5866        -4.46719         9.11803
           15449         71.1532         67.0368        -4.58051         8.95927
           15450         70.8871         66.7022        -4.42928         9.32261
           15451         71.3398         67.1652        -4.55051         9.16245
           15452         71.0542         66.8224        -4.37270         9.52452
           15453         71.5217         67.2985        -4.50192         9.36342
           15454         71.2152         66.9471        -4.29633         9.72285
           15455         71.6979         67.4365        -4.43366         9.56131
           15456         71.3689         67.0762        -4.19897         9.91666
           15457         71.8673         67.5791        -4.34453         9.75519
           15458         71.5140         67.2095        -4.07935         10.1049
           15459         72.0287         67.7264        -4.23328         9.94410
           15460         71.6494         67.3469        -3.93614         10.2867
           15461         72.1810         67.8780        -4.09857         10.1270
           15462         71.7736         67.4883        -3.76792         10.4607
           15463         72.3226         68.0339        -3.93902         10.3029
           15464         71.8851         67.6335        -3.57320         10.6259
           15465         72.4523         68.1939        -3.75314         10.4707
           15466         71.9824         67.7823        -3.35043         10.7811
           15467         72.5685         68.3577        -3.53938         10.6291
           15468         72.0639         67.9344        -3.09799         10.9250
           15469         72.6696         68.5252        -3.29613         10.7770
           15470         72.1280         68.0895        -2.81418         11.0563
           15471         72.7539         68.6960        -3.02168         10.9131
           15472         72.1728         68.2474        -2.49723         11.1736
           15473         72.8199         68.8699        -2.71428         11.0360
           15474         72.1968         68.4078        -2.14531         11.2753
           15475         72.8658         69.0466        -2.37209         11.1442
           15476         72.1980         68.5702        -1.75653         11.3600
           15477         72.8897         69.2257        -1.99320         11.2364
           15478         72.1747         68.7344        -1.32894         11.4260
           15479         72.8900         69.4068        -1.57566         11.3109
           15480         72.1251         68.9000    -860.530E-03         11.4715
           15481         72.8647         69.5895        -1.11742         11.3659
           15482         72.0472         69.0665    -349.233E-03         11.4947
           15483         72.8120         69.7734    -616.406E-03         11.3998
           15484         71.9395         69.2334     207.067E-03         11.4937
           15485         72.7302         69.9582    -70.4637E-03         11.4107
           15486         71.8001         69.4005     810.521E-03         11.4662
           15487         72.6176         70.1432     522.608E-03         11.3964
           15488         71.6275         69.5671         1.46333         11.4102
           15489         72.4724         70.3280         1.16506         11.3548
           15490         71.4202         69.7328         2.16774         11.3231
           15491         72.2930         70.5121         1.85918         11.2837
           15492         71.1768         69.8972         2.92601         11.2024
           15493         72.0782         70.6949         2.60734         11.1806
           15494         70.8962         70.0596         3.74048         11.0453
           15495         71.8265         70.8760         3.41193         11.0426
           15496         70.5777         70.2196         4.61349         10.8488
           15497         71.5371         71.0548         4.27540         10.8671
           15498         70.2205         70.3766         5.54744         10.6096
           15499         71.2090         71.2305         5.20025         10.6507
           15500         69.8247         70.5301         6.54477         10.3241
           15501         70.8421         71.4028         6.18906         10.3901
           15502         69.3905         70.6794         7.60802         9.98841
           15503         70.4364         71.5708         7.24447         10.0815
           15504         68.9190         70.8241         8.73978         9.59825
           15505         69.9924         71.7340         8.36922         9.72098
           15506         68.4119         70.9633         9.94276         9.14896
           15507         69.5115         71.8914         9.56619         9.30397
           15508         67.8719         71.0963         11.2199         8.63542
           15509         68.9959         72.0424         10.8384         8.82564
           15510         67.3029         71.2223         12.5741         8.05204
           15511         68.4487         72.1860         12.1890         8.28071
           15512         66.7102         71.3403         14.0087         7.39270
           15513         67.8746         72.3212         13.6214         7.66337
           15514         66.1010         71.4490         15.5274         6.65072
           15515         67.2796         72.4466         15.1395         6.96732
           15516         65.4849         71.5472         17.1340         5.81882
           15517         66.6720         72.5609         16.7471         6.18568
           15518         64.8741         71.6332         18.8330         4.88912
           15519         66.0627         72.6625         18.4488         5.31101
           15520         64.2844         71.7050         20.6293         3.85309
           15521         65.4655         72.7492         20.2497         4.33527
           15522         63.7362         71.7602         22.5285         2.70157
           15523         64.8984         72.8189         22.1552         3.24982
           15524         63.2547         71.7960         24.5368         1.42477
           15525         64.3840         72.8686         24.1717         2.04538
           15526         62.8713         71.8088         26.6618     11.7124E-03
           15527         63.9504         72.8952         26.3060     712.187E-03
           15528         54.7615         59.9276         17.2169         6.90027
           15529         54.4871         59.7760         17.5537         6.75359
           15530         54.3354         59.6360         17.8921         6.89853
           15531         55.2009         60.2211         16.5278         6.89725
           15532         54.9187         60.0678         16.8739         6.75210
           15533         55.6516         60.5151         15.8272         6.88739
           15534         55.3625         60.3607         16.1825         6.74541
           15535         56.1110         60.8081         15.1175         6.86906
           15536         55.8162         60.6534         15.4816         6.73182
           15537         56.5766         61.0985         14.4016         6.84104
           15538         56.2777         60.9444         14.7736         6.70994
           15539         57.0457         61.3846         13.6823         6.80253
           15540         56.7443         61.2322         14.0612         6.67880
           15541         57.5156         61.6648         12.9628         6.75314
           15542         57.2136         61.5153         13.3472         6.63780
           15543         57.9838         61.9376         12.2461         6.69290
           15544         57.6831         61.7921         12.6345         6.58672
           15545         58.4476         62.2013         11.5351         6.62222
           15546         58.1502         62.0613         11.9259         6.52572
           15547         58.9050         62.4549         10.8326         6.54183
           15548         58.6128         62.3215         11.2239         6.45528
           15549         59.3538         62.6972         10.1411         6.45278
           15550         59.0688         62.5716         10.5312         6.37620
           15551         59.7923         62.9273         9.46283         6.35630
           15552         59.5163         62.8107         9.85007         6.28949
           15553         60.2192         63.1446         8.79979         6.25382
           15554         59.9538         63.0380         9.18243         6.19637
           15555         60.6332         63.3488         8.15357         6.14685
           15556         60.3799         63.2532         8.53003         6.09820
           15557         61.0336         63.5397         7.52548         6.03699
           15558         60.7938         63.4557         7.89433         5.99643
           15559         61.4197         63.7174         6.91651         5.92583
           15560         61.1945         63.6457         7.27646         5.89253
           15561         61.7914         63.8820         6.32737         5.81491
           15562         61.5818         63.8231         6.67729         5.78799
           15563         62.1485         64.0340         5.75849         5.70575
           15564         61.9552         63.9882         6.09741         5.68426
           15565         62.4912         64.1739         5.21007         5.59974
           15566         62.3148         64.1415         5.53719         5.58272
           15567         62.8198         64.3023         4.68211         5.49819
           15568         62.6607         64.2834         4.99678         5.48467
           15569         63.1347         64.4199         4.17444         5.40228
           15570         62.9932         64.4146         4.47615         5.39133
           15571         63.4365         64.5276         3.68672         5.31307
           15572         63.3128         64.5357         3.97512         5.30377
           15573         63.7259         64.6261         3.21852         5.23150
           15574         63.6200         64.6475         3.49335         5.22297
           15575         64.0036         64.7162         2.76932         5.15837
           15576         63.9154         64.7507         3.03044         5.14980
           15577         64.2703         64.7988         2.33850         5.09437
           15578         64.1997         64.8462         2.58587         5.08500
           15579         64.5269         64.8746         1.92545         5.04008
           15580         64.4738         64.9348         2.15909         5.02920
           15581         64.7742         64.9447         1.52947         4.99596
           15582         64.7382         65.0172         1.74949         4.98293
           15583         65.0131         65.0096         1.14989         4.96238
           15584         64.9939         65.0942         1.35645         4.94662
           15585         65.2443         65.0703     786.032E-03         4.93961
           15586         65.2416         65.1666     979.332E-03         4.92061
           15587         65.4686         65.1274     437.219E-03         4.92784
           15588         65.4821         65.2352     617.498E-03         4.90513
           15589         65.6869         65.1815     102.806E-03         4.92720
           15590         65.7162         65.3006     270.328E-03         4.90037
           15591         65.9000         65.2335    -217.833E-03         4.93773
           15592         65.9447         65.3634    -62.7813E-03         4.90643
           15593         66.1085         65.2838    -525.287E-03         4.95941
           15594         66.1683         65.4244    -382.407E-03         4.92335
           15595         66.3132         65.3331    -820.105E-03         4.99220
           15596         66.3876         65.4842    -689.091E-03         4.95111
           15597         66.5147         65.3820        -1.10280         5.03598
           15598         66.6034         65.5432    -983.339E-03         4.98963
           15599         66.7137         65.4308        -1.37383         5.09060
           15600         66.8164         65.6020        -1.26562         5.03882
           15601         66.9107         65.4802        -1.63361         5.15587
           15602         67.0270         65.6612        -1.53635         5.09852
           15603         67.1063         65.5305        -1.88252         5.23156
           15604         67.2359         65.7212        -1.79591         5.16853
           15605         67.3010         65.5821        -2.12088         5.31743
           15606         67.4437         65.7824        -2.04463         5.24863
           15607         67.4953         65.6355        -2.34894         5.41319
           15608         67.6507         65.8452        -2.28278         5.33858
           15609         67.6896         65.6909        -2.56694         5.51853
           15610         67.8575         65.9101        -2.51061         5.43809
           15611         67.8842         65.7488        -2.77504         5.63315
           15612         68.0644         65.9773        -2.72829         5.54686
           15613         68.0795         65.8094        -2.97334         5.75667
           15614         68.2717         66.0472        -2.93595         5.66457
           15615         68.2757         65.8730        -3.16192         5.88875
           15616         68.4799         66.1201        -3.13366         5.79087
           15617         68.4731         65.9399        -3.34077         6.02898
           15618         68.6891         66.1964        -3.32146         5.92539
           15619         68.6719         66.0103        -3.50986         6.17697
           15620         68.8995         66.2761        -3.49930         6.06775
           15621         68.8722         66.0844        -3.66907         6.33229
           15622         69.1113         66.3596        -3.66712         6.21754
           15623         69.0740         66.1625        -3.81827         6.49449
           15624         69.3246         66.4472        -3.82477         6.37433
           15625         69.2773         66.2447        -3.95723         6.66312
           15626         69.5394         66.5389        -3.97205         6.53768
           15627         69.4822         66.3311        -4.08568         6.83768
           15628         69.7557         66.6351        -4.10873         6.70712
           15629         69.6886         66.4221        -4.20332         7.01769
           15630         69.9735         66.7359        -4.23450         6.88218
           15631         69.8961         66.5176        -4.30975         7.20261
           15632         70.1926         66.8414        -4.34899         7.06235
           15633         70.1048         66.6179        -4.40453         7.39190
           15634         70.4128         66.9517        -4.45178         7.24709
           15635         70.3141         66.7229        -4.48717         7.58499
           15636         70.6339         67.0671        -4.54239         7.43587
           15637         70.5239         66.8329        -4.55710         7.78129
           15638         70.8555         67.1876        -4.62028         7.62810
           15639         70.7336         66.9479        -4.61370         7.98017
           15640         71.0773         67.3132        -4.68484         7.82320
           15641         70.9427         67.0679        -4.65629         8.18100
           15642         71.2986         67.4441        -4.73540         8.02053
           15643         71.1507         67.1931        -4.68411         8.38309
           15644         71.5191         67.5804        -4.77123         8.21944
           15645         71.3569         67.3233        -4.69634         8.58575
           15646         71.7381         67.7219        -4.79154         8.41925
           15647         71.5606         67.4587        -4.69210         8.78822
           15648         71.9549         67.8689        -4.79544         8.61926
           15649         71.7609         67.5992        -4.67043         8.98975
           15650         72.1688         68.0211        -4.78201         8.81870
           15651         71.9570         67.7448        -4.63032         9.18951
           15652         72.3787         68.1788        -4.75024         9.01681
           15653         72.1479         67.8954        -4.57066         9.38667
           15654         72.5839         68.3416        -4.69905         9.21276
           15655         72.3326         68.0509        -4.49029         9.58035
           15656         72.7833         68.5098        -4.62729         9.40571
           15657         72.5098         68.2112        -4.38798         9.76960
           15658         72.9758         68.6830        -4.53374         9.59476
           15659         72.6784         68.3763        -4.26239         9.95346
           15660         73.1602         68.8612        -4.41709         9.77896
           15661         72.8370         68.5459        -4.11215         10.1309
           15662         73.3353         69.0442        -4.27597         9.95734
           15663         72.9843         68.7199        -3.93579         10.3009
           15664         73.4996         69.2319        -4.10892         10.1289
           15665         73.1188         68.8981        -3.73178         10.4622
           15666         73.6518         69.4241        -3.91443         10.2924
           15667         73.2390         69.0802        -3.49849         10.6138
           15668         73.7904         69.6206        -3.69088         10.4469
           15669         73.3432         69.2660        -3.23423         10.7544
           15670         73.9138         69.8210        -3.43659         10.5912
           15671         73.4298         69.4551        -2.93725         10.8826
           15672         74.0203         70.0251        -3.14980         10.7238
           15673         73.4972         69.6474        -2.60571         10.9971
           15674         74.1083         70.2326        -2.82868         10.8437
           15675         73.5434         69.8423        -2.23770         11.0964
           15676         74.1760         70.4431        -2.47132         10.9492
           15677         73.5668         70.0396        -1.83124         11.1791
           15678         74.2217         70.6563        -2.07573         11.0391
           15679         73.5655         70.2388        -1.38428         11.2434
           15680         74.2436         70.8717        -1.63986         11.1116
           15681         73.5377         70.4396    -894.723E-03         11.2877
           15682         74.2397         71.0889        -1.16158         11.1651
           15683         73.4816         70.6413    -360.381E-03         11.3101
           15684         74.2084         71.3075    -638.694E-03         11.1980
           15685         73.3954         70.8437     220.983E-03         11.3088
           15686         74.1478         71.5269    -68.9323E-03         11.2083
           15687         73.2774         71.0461     851.659E-03         11.2815
           15688         74.0562         71.7466     550.038E-03         11.1939
           15689         73.1260         71.2480         1.53400         11.2262
           15690         73.9319         71.9661         1.22061         11.1529
           15691         72.9397         71.4488         2.27043         11.1404
           15692         73.7732         72.1847         1.94525         11.0828
           15693         72.7170         71.6481         3.06340         11.0215
           15694         73.5788         72.4020         2.72649         10.9813
           15695         72.4569         71.8451         3.91546         10.8667
           15696         73.3474         72.6172         3.56694         10.8456
           15697         72.1584         72.0393         4.82921         10.6732
           15698         73.0778         72.8297         4.46928         10.6728
           15699         71.8210         72.2299         5.80730         10.4375
           15700         72.7693         73.0387         5.43626         10.4600
           15701         71.4444         72.4164         6.85250         10.1562
           15702         72.4216         73.2435         6.47075         10.2036
           15703         71.0289         72.5979         7.96767         9.82538
           15704         72.0345         73.4434         7.57571         9.90002
           15705         70.5756         72.7736         9.15578         9.44086
           15706         71.6087         73.6375         8.75423         9.54524
           15707         70.0859         72.9426         10.4200         8.99802
           15708         71.1454         73.8247         10.0096         9.13490
           15709         69.5625         73.1040         11.7635         8.49187
           15710         70.6466         74.0041         11.3451         8.66423
           15711         69.0093         73.2566         13.1900         7.91692
           15712         70.1156         74.1746         12.7646         8.12805
           15713         68.4315         73.3993         14.7032         7.26722
           15714         69.5567         74.3347         14.2719         7.52074
           15715         67.8361         73.5305         16.3073         6.53629
           15716         68.9761         74.4831         15.8712         6.83617
           15717         67.2327         73.6485         18.0068         5.71712
           15718         68.3819         74.6180         17.5671         6.06771
           15719         66.6332         73.7514         19.8068         4.80212
           15720         67.7848         74.7374         19.3648         5.20821
           15721         66.0536         73.8369         21.7126         3.78312
           15722         67.1988         74.8391         21.2697         4.24993
           15723         65.5136         73.9023         23.7306         2.65138
           15724         66.6413         74.9204         23.2881         3.18466
           15725         65.0385         73.9444         25.8677         1.39761
           15726         66.1350         74.9781         25.4266         2.00355
           15727         64.6590         73.9594         28.1317     11.3736E-03
           15728         65.7074         75.0088         27.6930     697.332E-03
           15729         54.6458         59.9200         17.2180         6.60818
           15730         54.3788         59.7735         17.5543         6.46316
           15731         54.2216         59.6295         17.8899         6.60865
           15732         55.0832         60.2121         16.5342         6.60406
           15733         54.8088         60.0642         16.8782         6.46015
           15734         55.5316         60.5045         15.8406         6.59441
           15735         55.2508         60.3559         16.1923         6.45306
           15736         55.9889         60.7962         15.1393         6.57774
           15737         55.7028         60.6473         15.4983         6.44034
           15738         56.4530         61.0855         14.4327         6.55292
           15739         56.1627         60.9373         14.7984         6.42073
           15740         56.9213         61.3712         13.7234         6.51916
           15741         56.6284         61.2245         14.0949         6.39329
           15742         57.3914         61.6517         13.0141         6.47605
           15743         57.0976         61.5076         13.3903         6.35742
           15744         57.8610         61.9257         12.3074         6.42353
           15745         57.5679         61.7852         12.6869         6.31287
           15746         58.3279         62.1918         11.6059         6.36187
           15747         58.0372         62.0561         11.9874         6.25969
           15748         58.7898         62.4489         10.9121         6.29163
           15749         58.5034         62.3192         11.2940         6.19823
           15750         59.2450         62.6960         10.2282         6.21366
           15751         58.9646         62.5733         10.6090         6.12910
           15752         59.6916         62.9323         9.55640         6.12898
           15753         59.4189         62.8176         9.93454         6.05316
           15754         60.1284         63.1572         8.89842         6.03880
           15755         59.8649         63.0515         9.27239         5.97142
           15756         60.5541         63.3704         8.25581         5.94442
           15757         60.3013         63.2745         8.62419         5.88503
           15758         60.9678         63.5715         7.62983         5.84724
           15759         60.7270         63.4861         7.99130         5.79524
           15760         61.3690         63.7606         7.02148         5.74864
           15761         61.1412         63.6864         7.37484         5.70336
           15762         61.7572         63.9377         6.43150         5.65004
           15763         61.5434         63.8752         6.77569         5.61069
           15764         62.1322         64.1033         5.86040         5.55277
           15765         61.9332         64.0528         6.19448         5.51855
           15766         62.4940         64.2577         5.30845         5.45814
           15767         62.3105         64.2195         5.63165         5.42819
           15768         62.8428         64.4014         4.77576         5.36734
           15769         62.6752         64.3757         5.08742         5.34080
           15770         63.1788         64.5351         4.26226         5.28149
           15771         63.0276         64.5220         4.56186         5.25750
           15772         63.5026         64.6594         3.76775         5.20160
           15773         63.3680         64.6588         4.05488         5.17932
           15774         63.8147         64.7750         3.29189         5.12856
           15775         63.6967         64.7870         3.56628         5.10719
           15776         64.1156         64.8827         2.83428         5.06317
           15777         64.0144         64.9071         3.09573         5.04193
           15778         64.4061         64.9833         2.39444         5.00611
           15779         64.3215         65.0198         2.64285         4.98429
           15780         64.6869         65.0775         1.97183         4.95796
           15781         64.6188         65.1260         2.20718         4.93487
           15782         64.9586         65.1661         1.56587         4.91920
           15783         64.9069         65.2264         1.78820         4.89423
           15784         65.2221         65.2498         1.17598         4.89021
           15785         65.1865         65.3216         1.38539         4.86279
           15786         65.4781         65.3293     801.560E-03         4.87131
           15787         65.4583         65.4124     998.205E-03         4.84091
           15788         65.7274         65.4055     442.017E-03         4.86270
           15789         65.7232         65.4996     626.077E-03         4.82888
           15790         65.9708         65.4788     96.7731E-03         4.86455
           15791         65.9817         65.5837     268.462E-03         4.82688
           15792         66.2088         65.5501    -234.733E-03         4.87694
           15793         66.2347         65.6655    -75.1794E-03         4.83505
           15794         66.4424         65.6199    -553.036E-03         4.89988
           15795         66.4828         65.7456    -405.363E-03         4.85347
           15796         66.6721         65.6888    -858.633E-03         4.93336
           15797         66.7267         65.8245    -722.578E-03         4.88214
           15798         66.8986         65.7573        -1.15199         4.97731
           15799         66.9671         65.9028        -1.02728         4.92103
           15800         67.1224         65.8259        -1.43353         5.03159
           15801         67.2045         65.9811        -1.31990         4.97007
           15802         67.3443         65.8952        -1.70363         5.09605
           15803         67.4396         66.0600        -1.60081         5.02912
           15804         67.5647         65.9657        -1.96264         5.17051
           15805         67.6730         66.1397        -1.87036         5.09803
           15806         67.7841         66.0376        -2.21084         5.25474
           15807         67.9051         66.2208        -2.12885         5.17661
           15808         68.0030         66.1115        -2.44847         5.34848
           15809         68.1364         66.3038        -2.37652         5.26463
           15810         68.2218         66.1876        -2.67573         5.45146
           15811         68.3673         66.3890        -2.61359         5.36184
           15812         68.4409         66.2665        -2.89276         5.56337
           15813         68.5983         66.4768        -2.84020         5.46796
           15814         68.6606         66.3483        -3.09966         5.68390
           15815         68.8298         66.5675        -3.05647         5.58269
           15816         68.8812         66.4334        -3.29645         5.81269
           15817         69.0619         66.6615        -3.26244         5.70571
           15818         69.1029         66.5220        -3.48314         5.94937
           15819         69.2950         66.7591        -3.45814         5.83666
           15820         69.3258         66.6145        -3.65966         6.09357
           15821         69.5292         66.8605        -3.64349         5.97519
           15822         69.5502         66.7111        -3.82588         6.24487
           15823         69.7648         66.9660        -3.81841         6.12091
           15824         69.7760         66.8119        -3.98163         6.40286
           15825         70.0017         67.0758        -3.98274         6.27340
           15826         70.0034         66.9173        -4.12669         6.56708
           15827         70.2402         67.1903        -4.13626         6.43225
           15828         70.2323         67.0273        -4.26076         6.73706
           15829         70.4800         67.3095        -4.27871         6.59701
           15830         70.4624         67.1422        -4.38350         6.91233
           15831         70.7213         67.4337        -4.40976         6.76721
           15832         70.6938         67.2621        -4.49451         7.09238
           15833         70.9637         67.5630        -4.52903         6.94237
           15834         70.9261         67.3872        -4.59333         7.27668
           15835         71.2073         67.6976        -4.63606         7.12196
           15836         71.1591         67.5175        -4.67943         7.46467
           15837         71.4515         67.8376        -4.73037         7.30547
           15838         71.3924         67.6532        -4.75222         7.65578
           15839         71.6963         67.9831        -4.81137         7.49234
           15840         71.6256         67.7943        -4.81107         7.84941
           15841         71.9410         68.1343        -4.87845         7.68199
           15842         71.8581         67.9410        -4.85524         8.04493
           15843         72.1854         68.2912        -4.93090         7.87380
           15844         72.0894         68.0932        -4.88396         8.24167
           15845         72.4287         68.4538        -4.96796         8.06716
           15846         72.3187         68.2510        -4.89639         8.43897
           15847         72.6704         68.6222        -4.98881         8.26139
           15848         72.5455         68.4143        -4.89160         8.63609
           15849         72.9099         68.7965        -4.99254         8.45580
           15850         72.7688         68.5833        -4.86860         8.83229
           15851         73.1462         68.9765        -4.97818         8.64968
           15852         72.9878         68.7578        -4.82634         9.02678
           15853         73.3786         69.1623        -4.94470         8.84225
           15854         73.2015         68.9377        -4.76369         9.21873
           15855         73.6061         69.3538        -4.89097         9.03274
           15856         73.4087         69.1230        -4.67942         9.40729
           15857         73.8276         69.5510        -4.81581         9.22031
           15858         73.6084         69.3136        -4.57227         9.59155
           15859         74.0422         69.7537        -4.71795         9.40408
           15860         73.7994         69.5094        -4.44087         9.77057
           15861         74.2485         69.9618        -4.59605         9.58316
           15862         73.9802         69.7100        -4.28379         9.94334
           15863         74.4453         70.1752        -4.44869         9.75657
           15864         74.1496         69.9155        -4.09950         10.1088
           15865         74.6313         70.3936        -4.27436         9.92332
           15866         74.3061         70.1255        -3.88641         10.2660
           15867         74.8050         70.6169        -4.07148         10.0824
           15868         74.4481         70.3398        -3.64286         10.4135
           15869         74.9650         70.8447        -3.83839         10.2326
           15870         74.5741         70.5581        -3.36709         10.5504
           15871         75.1097         71.0769        -3.57336         10.3728
           15872         74.6823         70.7801        -3.05726         10.6752
           15873         75.2374         71.3131        -3.27454         10.5018
           15874         74.7711         71.0055        -2.71148         10.7867
           15875         75.3464         71.5530        -2.94006         10.6182
           15876         74.8387         71.2338        -2.32775         10.8834
           15877         75.4351         71.7961        -2.56790         10.7208
           15878         74.8833         71.4646        -1.90401         10.9638
           15879         75.5016         72.0421        -2.15602         10.8081
           15880         74.9031         71.6977        -1.43812         11.0263
           15881         75.5441         72.2906        -1.70226         10.8785
           15882         74.8962         71.9323    -927.869E-03         11.0693
           15883         75.5609         72.5410        -1.20440         10.9304
           15884         74.8610         72.1681    -370.967E-03         11.0909
           15885         75.5500         72.7929    -660.139E-03         10.9621
           15886         74.7955         72.4045     234.952E-03         11.0892
           15887         75.5098         73.0457    -67.0810E-03         10.9718
           15888         74.6981         72.6409     892.317E-03         11.0622
           15889         75.4383         73.2989     577.235E-03         10.9574
           15890         74.5670         72.8768         1.60364         11.0076
           15891         75.3340         73.5517         1.27535         10.9169
           15892         74.4009         73.1115         2.37150         10.9232
           15893         75.1952         73.8036         2.02990         10.8480
           15894         74.1982         73.3444         3.19857         10.8064
           15895         75.0205         74.0539         2.84359         10.7483
           15896         73.9577         73.5747         4.08760         10.6544
           15897         74.8085         74.3019         3.71923         10.6152
           15898         73.6787         73.8017         5.04141         10.4642
           15899         74.5581         74.5468         4.65973         10.4458
           15900         73.3603         74.0247         6.06295         10.2327
           15901         74.2685         74.7877         5.66810         10.2370
           15902         73.0023         74.2427         7.15527         9.95640
           15903         73.9392         75.0238         6.74747         9.98553
           15904         72.6050         74.4549         8.32155         9.63142
           15905         73.5703         75.2541         7.90111         9.68778
           15906         72.1693         74.6603         9.56512         9.25366
           15907         73.1621         75.4777         9.13245         9.33982
           15908         71.6967         74.8578         10.8895         8.81862
           15909         72.7158         75.6934         10.4451         8.93737
           15910         71.1897         75.0462         12.2985         8.32141
           15911         72.2336         75.8999         11.8429         8.47579
           15912         70.6521         75.2243         13.7960         7.75672
           15913         71.7184         76.0959         13.3299         7.95006
           15914         70.0892         75.3904         15.3864         7.11875
           15915         71.1747         76.2798         14.9105         7.35470
           15916         69.5078         75.5428         17.0742         6.40125
           15917         70.6086         76.4500         16.5894         6.68381
           15918         68.9174         75.6796         18.8646         5.59748
           15919         70.0280         76.6043         18.3717         5.93100
           15920         68.3300         75.7985         20.7631         4.70016
           15921         69.4437         76.7407         20.2630         5.08941
           15922         67.7612         75.8970         22.7759         3.70147
           15923         68.8694         76.8564         22.2694         4.15167
           15924         67.2307         75.9720         24.9096         2.59311
           15925         68.3227         76.9486         24.3974         3.10992
           15926         66.7634         76.0200         27.1716         1.36625
           15927         67.8255         77.0139         26.6546         1.95577
           15928         66.3897         76.0371         29.5706     11.0141E-03
           15929         67.4056         77.0485         29.0489     680.430E-03
           15930         54.5428         59.9210         17.2206         6.31719
           15931         54.2821         59.7787         17.5567         6.17347
           15932         54.1196         59.6312         17.8903         6.31952
           15933         54.9787         60.2121         16.5410         6.31214
           15934         54.7112         60.0688         16.8834         6.16918
           15935         55.4256         60.5035         15.8531         6.30269
           15936         55.1520         60.3596         16.2019         6.16178
           15937         55.8815         60.7941         15.1588         6.28748
           15938         55.6028         60.6502         15.5136         6.14984
           15939         56.3445         61.0827         14.4601         6.26544
           15940         56.0618         60.9395         14.8205         6.13221
           15941         56.8123         61.3681         13.7594         6.23583
           15942         56.5269         61.2263         14.1246         6.10800
           15943         57.2829         61.6490         13.0588         6.19820
           15944         56.9962         61.5096         13.4279         6.07662
           15945         57.7540         61.9242         12.3608         6.15244
           15946         57.4676         61.7880         12.7326         6.03779
           15947         58.2236         62.1925         11.6676         6.09870
           15948         57.9390         62.0606         12.0410         5.99147
           15949         58.6897         62.4529         10.9815         6.03743
           15950         58.4085         62.3263         11.3551         5.93791
           15951         59.1505         62.7044         10.3045         5.96927
           15952         58.8743         62.5840         10.6770         5.87760
           15953         59.6045         62.9464         9.63855         5.89510
           15954         59.3348         62.8332         10.0085         5.81122
           15955         60.0501         63.1781         8.98522         5.81593
           15956         59.7885         63.0730         9.35137         5.73962
           15957         60.4863         63.3993         8.34601         5.73288
           15958         60.2340         63.3030         8.70704         5.66380
           15959         60.9122         63.6097         7.72212         5.64716
           15960         60.6704         63.5229         8.07683         5.58481
           15961         61.3269         63.8092         7.11454         5.56000
           15962         61.0969         63.7325         7.46181         5.50381
           15963         61.7301         63.9978         6.52402         5.47264
           15964         61.5127         63.9318         6.86286         5.42196
           15965         62.1214         64.1758         5.95111         5.38632
           15966         61.9174         64.1208         6.28064         5.34041
           15967         62.5008         64.3436         5.39616         5.30219
           15968         62.3109         64.2999         5.71561         5.26032
           15969         62.8682         64.5015         4.85935         5.22138
           15970         62.6929         64.4693         5.16808         5.18277
           15971         63.2238         64.6500         4.34070         5.14492
           15972         63.0637         64.6295         4.63819         5.10880
           15973         63.5681         64.7899         3.84011         5.07376
           15974         63.4233         64.7811         4.12592         5.03936
           15975         63.9013         64.9216         3.35735         5.00877
           15976         63.7721         64.9245         3.63117         4.97534
           15977         64.2241         65.0458         2.89211         4.95069
           15978         64.1105         65.0604         3.15371         4.91752
           15979         64.5369         65.1634         2.44400         4.90021
           15980         64.4390         65.1894         2.69325         4.86661
           15981         64.8405         65.2749         2.01260         4.85789
           15982         64.7582         65.3122         2.24942         4.82323
           15983         65.1354         65.3811         1.59741         4.82424
           15984         65.0686         65.4296         1.82180         4.78790
           15985         65.4223         65.4827         1.19794         4.79963
           15986         65.3709         65.5421         1.40995         4.76108
           15987         65.7020         65.5803     813.663E-03         4.78441
           15988         65.6657         65.6506         1.01339         4.74312
           15989         65.9751         65.6748     444.067E-03         4.77880
           15990         65.9537         65.7555     631.651E-03         4.73433
           15991         66.2424         65.7666     88.6387E-03         4.78299
           15992         66.2356         65.8576     264.243E-03         4.73491
           15993         66.5045         65.8565    -253.121E-03         4.79710
           15994         66.5120         65.9576    -89.3034E-03         4.74504
           15995         66.7621         65.9451    -581.690E-03         4.82117
           15996         66.7836         66.0560    -429.448E-03         4.76480
           15997         67.0159         66.0328    -897.517E-03         4.85521
           15998         67.0511         66.1534    -756.629E-03         4.79424
           15999         67.2664         66.1204        -1.20102         4.89918
           16000         67.3151         66.2504        -1.07125         4.83336
           16001         67.5143         66.2083        -1.49258         4.95298
           16002         67.5761         66.3476        -1.37370         4.88208
           16003         67.7602         66.2970        -1.77255         5.01648
           16004         67.8348         66.4454        -1.66432         4.94034
           16005         68.0045         66.3870        -2.04122         5.08953
           16006         68.0917         66.5443        -1.94341         5.00798
           16007         68.2478         66.4787        -2.29887         5.17193
           16008         68.3473         66.6448        -2.21124         5.08484
           16009         68.4906         66.5725        -2.54569         5.26344
           16010         68.6020         66.7473        -2.46803         5.17074
           16011         68.7331         66.6688        -2.78186         5.36383
           16012         68.8564         66.8523        -2.71396         5.26542
           16013         68.9759         66.7680        -3.00750         5.47280
           16014         69.1107         66.9600        -2.94916         5.36866
           16015         69.2192         66.8705        -3.22268         5.59006
           16016         69.3653         67.0710        -3.17372         5.48016
           16017         69.4633         66.9765        -3.42742         5.71528
           16018         69.6206         67.1854        -3.38766         5.59963
           16019         69.7084         67.0863        -3.62168         5.84812
           16020         69.8768         67.3037        -3.59097         5.72673
           16021         69.9547         67.2003        -3.80539         5.98820
           16022         70.1340         67.4262        -3.78357         5.86113
           16023         70.2024         67.3187        -3.97839         6.13516
           16024         70.3925         67.5530        -3.96536         6.00245
           16025         70.4515         67.4417        -4.14050         6.28857
           16026         70.6522         67.6846        -4.13614         6.15032
           16027         70.7019         67.5696        -4.29146         6.44801
           16028         70.9134         67.8210        -4.29569         6.30432
           16029         70.9538         67.7025        -4.43098         6.61303
           16030         71.1759         67.9625        -4.44373         6.46402
           16031         71.2070         67.8406        -4.55868         6.78317
           16032         71.4397         68.1094        -4.57989         6.62899
           16033         71.4612         67.9842        -4.67413         6.95794
           16034         71.7047         68.2618        -4.70378         6.79874
           16035         71.7163         68.1333        -4.77687         7.13682
           16036         71.9706         68.4199        -4.81493         6.97278
           16037         71.9720         68.2881        -4.86632         7.31928
           16038         72.2371         68.5837        -4.91282         7.15062
           16039         72.2279         68.4486        -4.94190         7.50477
           16040         72.5040         68.7536        -4.99685         7.33170
           16041         72.4835         68.6151        -5.00292         7.69269
           16042         72.7708         68.9294        -5.06636         7.51547
           16043         72.7385         68.7874        -5.04863         7.88245
           16044         73.0371         69.1113        -5.12064         7.70134
           16045         72.9920         68.9658        -5.07823         8.07341
           16046         73.3023         69.2995        -5.15890         7.88870
           16047         73.2436         69.1502        -5.09085         8.26490
           16048         73.5658         69.4938        -5.18027         8.07692
           16049         73.4924         69.3406        -5.08552         8.45622
           16050         73.8269         69.6944        -5.18383         8.26531
           16051         73.7377         69.5370        -5.06124         8.64664
           16052         74.0847         69.9012        -5.16858         8.45318
           16053         73.9785         69.7394        -5.01690         8.83541
           16054         74.3385         70.1142        -5.13343         8.63980
           16055         74.2139         69.9477        -4.95133         9.02172
           16056         74.5872         70.3333        -5.07725         8.82439
           16057         74.4427         70.1618        -4.86328         9.20474
           16058         74.8300         70.5585        -4.99879         9.00616
           16059         74.6639         70.3815        -4.75144         9.38360
           16060         75.0655         70.7896        -4.89676         9.18426
           16061         74.8762         70.6068        -4.61439         9.55736
           16062         75.2928         71.0265        -4.76977         9.35780
           16063         75.0783         70.8374        -4.45065         9.72508
           16064         75.5104         71.2690        -4.61635         9.52587
           16065         75.2688         71.0732        -4.25866         9.88572
           16066         75.7170         71.5170        -4.43494         9.68747
           16067         75.4463         71.3139        -4.03676         10.0382
           16068         75.9113         71.7702        -4.22393         9.84161
           16069         75.6091         71.5592        -3.78323         10.1815
           16070         76.0917         72.0283        -3.98159         9.98718
           16071         75.7558         71.8088        -3.49625         10.3143
           16072         76.2567         72.2910        -3.70611         10.1231
           16073         75.8847         72.0624        -3.17392         10.4355
           16074         76.4046         72.5581        -3.39562         10.2481
           16075         75.9940         72.3196        -2.81427         10.5437
           16076         76.5337         72.8291        -3.04814         10.3609
           16077         76.0820         72.5801        -2.41524         10.6375
           16078         76.6424         73.1036        -2.66160         10.4603
           16079         76.1469         72.8433        -1.97466         10.7154
           16080         76.7288         73.3813        -2.23387         10.5448
           16081         76.1869         73.1088        -1.49031         10.7760
           16082         76.7911         73.6615        -1.76270         10.6129
           16083         76.2001         73.3761    -959.871E-03         10.8175
           16084         76.8275         73.9439        -1.24577         10.6631
           16085         76.1848         73.6446    -380.944E-03         10.8382
           16086         76.8363         74.2278    -680.671E-03         10.6936
           16087         76.1392         73.9138     248.965E-03         10.8362
           16088         76.8155         74.5127    -64.8951E-03         10.7026
           16089         76.0615         74.1830     932.421E-03         10.8094
           16090         76.7634         74.7979     604.156E-03         10.6882
           16091         75.9500         74.4515         1.67209         10.7558
           16092         76.6783         75.0828         1.32917         10.6483
           16093         75.8032         74.7187         2.47073         10.6730
           16094         76.5585         75.3666         2.11293         10.5808
           16095         75.6197         74.9838         3.33119         10.5585
           16096         76.4026         75.6486         2.95834         10.4832
           16097         75.3982         75.2461         4.25644         10.4096
           16098         76.2093         75.9280         3.86841         10.3529
           16099         75.1378         75.5046         5.24954         10.2234
           16100         75.9773         76.2039         4.84626         10.1872
           16101         74.8378         75.7584         6.31369         9.99670
           16102         75.7059         76.4753         5.89513         9.98309
           16103         74.4978         76.0067         7.45222         9.72610
           16104         75.3944         76.7413         7.01844         9.73726
           16105         74.1181         76.2482         8.66863         9.40789
           16106         75.0430         77.0007         8.21974         9.44620
           16107         73.6995         76.4820         9.96660         9.03801
           16108         74.6518         77.2525         9.50279         9.10607
           16109         73.2435         76.7066         11.3500         8.61209
           16110         74.2222         77.4952         10.8715         8.71272
           16111         72.7526         76.9208         12.8230         8.12537
           16112         73.7561         77.7275         12.3302         8.26165
           16113         72.2305         77.1229         14.3901         7.57269
           16114         73.2566         77.9478         13.8832         7.74798
           16115         71.6824         77.3112         16.0558         6.94847
           16116         72.7279         78.1543         15.5354         7.16645
           16117         71.1151         77.4838         17.8255         6.24670
           16118         72.1762         78.3450         17.2919         6.51135
           16119         70.5381         77.6383         19.7045         5.46089
           16120         71.6095         78.5178         19.1583         5.77657
           16121         69.9632         77.7724         21.6991         4.58408
           16122         71.0383         78.6700         21.1406         4.95554
           16123         69.4060         77.8830         23.8157         3.60884
           16124         70.4763         78.7990         23.2455         4.04123
           16125         68.8860         77.9670         26.0617         2.52726
           16126         69.9409         78.9015         25.4800         3.02618
           16127         68.4278         78.0207         28.4448         1.33097
           16128         69.4542         78.9739         27.8519         1.90242
           16129         68.0615         78.0397         30.9743     10.6357E-03
           16130         69.0432         79.0121         30.3699     661.659E-03
           16131         54.4511         59.9293         17.2246         6.02692
           16132         54.1958         59.7905         17.5607         5.88420
           16133         54.0284         59.6399         17.8927         6.03082
           16134         54.8861         60.2197         16.5482         6.02112
           16135         54.6246         60.0802         16.8894         5.87886
           16136         55.3321         60.5104         15.8649         6.01188
           16137         55.0648         60.3704         16.2112         5.87122
           16138         55.7871         60.8003         15.1763         5.99795
           16139         55.5149         60.6605         15.5276         5.86000
           16140         56.2494         61.0885         14.4843         5.97835
           16141         55.9734         60.9493         14.8401         5.84411
           16142         56.7172         61.3739         13.7908         5.95236
           16143         56.4383         61.2361         14.1505         5.82273
           16144         57.1884         61.6553         13.0977         5.91954
           16145         56.9080         61.5196         13.4607         5.79529
           16146         57.6610         61.9317         12.4073         5.87970
           16147         57.3804         61.7990         12.7724         5.76146
           16148         58.1332         62.2021         11.7214         5.83293
           16149         57.8539         62.0732         12.0877         5.72117
           16150         58.6031         62.4655         11.0421         5.77956
           16151         58.3265         62.3413         11.4084         5.67458
           16152         59.0691         62.7211         10.3712         5.72010
           16153         58.7966         62.6025         10.7363         5.62207
           16154         59.5296         62.9681         9.71049         5.65529
           16155         59.2627         62.8560         10.0732         5.56418
           16156         59.9833         63.2061         9.06142         5.58595
           16157         59.7233         63.1012         9.42053         5.50162
           16158         60.4290         63.4346         8.42537         5.51308
           16159         60.1771         63.3377         8.77974         5.43524
           16160         60.8657         63.6534         7.80350         5.43769
           16161         60.6232         63.5651         8.15203         5.36597
           16162         61.2928         63.8624         7.19676         5.36090
           16163         61.0607         63.7833         7.53843         5.29479
           16164         61.7097         64.0615         6.60591         5.28379
           16165         61.4889         63.9921         6.93980         5.22274
           16166         62.1159         64.2510         6.03153         5.20747
           16167         61.9073         64.1916         6.35680         5.15085
           16168         62.5113         64.4310         5.47402         5.13301
           16169         62.3156         64.3821         5.78993         5.08016
           16170         62.8959         64.6020         4.93360         5.06142
           16171         62.7136         64.5637         5.23953         5.01165
           16172         63.2697         64.7644         4.41040         4.99366
           16173         63.1012         64.7369         4.70581         4.94628
           16174         63.6329         64.9187         3.90436         4.93064
           16175         63.4787         64.9020         4.18883         4.88494
           16176         63.9859         65.0655         3.41537         4.87315
           16177         63.8462         65.0597         3.68855         4.82845
           16178         64.3291         65.2053         2.94319         4.82193
           16179         64.2040         65.2104         3.20484         4.77756
           16180         64.6629         65.3388         2.48754         4.77763
           16181         64.5525         65.3547         2.73747         4.73294
           16182         64.9879         65.4667         2.04805         4.74081
           16183         64.8922         65.4933         2.28617         4.69521
           16184         65.3047         65.5896         1.62434         4.71196
           16185         65.2236         65.6267         1.85059         4.66486
           16186         65.6138         65.7082         1.21598         4.69148
           16187         65.5473         65.7557         1.43037         4.64236
           16188         65.9160         65.8231     822.532E-03         4.67971
           16189         65.8639         65.8808         1.02512         4.62806
           16190         66.2118         65.9351     443.540E-03         4.67690
           16191         66.1739         66.0027     634.419E-03         4.62228
           16192         66.5019         66.0446     78.5597E-03         4.68326
           16193         66.4779         66.1220     257.855E-03         4.62525
           16194         66.7870         66.1524    -272.847E-03         4.69892
           16195         66.7767         66.2394    -104.984E-03         4.63714
           16196         67.0676         66.2590    -611.104E-03         4.72396
           16197         67.0708         66.3554    -454.502E-03         4.65807
           16198         67.3445         66.3650    -936.609E-03         4.75840
           16199         67.3609         66.4706    -791.084E-03         4.68811
           16200         67.6181         66.4710        -1.24974         4.80223
           16201         67.6475         66.5856        -1.11509         4.72727
           16202         67.8892         66.5775        -1.55083         4.85538
           16203         67.9311         66.7009        -1.42686         4.77552
           16204         68.1581         66.6849        -1.84019         4.91775
           16205         68.2125         66.8170        -1.72670         4.83279
           16206         68.4255         66.7938        -2.11809         4.98921
           16207         68.4920         66.9345        -2.01487         4.89898
           16208         68.6919         66.9046        -2.38476         5.06958
           16209         68.7701         67.0537        -2.29161         4.97394
           16210         68.9576         67.0178        -2.64039         5.15866
           16211         69.0474         67.1751        -2.55711         5.05750
           16212         69.2230         67.1337        -2.88510         5.25623
           16213         69.3242         67.2992        -2.81152         5.14946
           16214         69.4886         67.2527        -3.11901         5.36202
           16215         69.6010         67.4263        -3.05495         5.24958
           16216         69.7546         67.3751        -3.34216         5.47575
           16217         69.8780         67.5568        -3.28745         5.35761
           16218         70.0214         67.5014        -3.55454         5.59714
           16219         70.1555         67.6911        -3.50904         5.47326
           16220         70.2891         67.6318        -3.75609         5.72584
           16221         70.4339         67.8295        -3.71966         5.59624
           16222         70.5579         67.7666        -3.94673         5.86151
           16223         70.7132         67.9723        -3.91924         5.72622
           16224         70.8280         67.9062        -4.12627         6.00379
           16225         70.9937         68.1198        -4.10763         5.86285
           16226         71.0994         68.0506        -4.29451         6.15229
           16227         71.2754         68.2722        -4.28464         6.00577
           16228         71.3722         68.2003        -4.45119         6.30661
           16229         71.5584         68.4299        -4.45000         6.15458
           16230         71.6462         68.3553        -4.59596         6.46630
           16231         71.8427         68.5931        -4.60341         6.30889
           16232         71.9214         68.5160        -4.72845         6.63094
           16233         72.1281         68.7619        -4.74451         6.46825
           16234         72.1976         68.6824        -4.84821         6.80004
           16235         72.4146         68.9366        -4.87287         6.63223
           16236         72.4745         68.8548        -4.95472         6.97311
           16237         72.7019         69.1173        -4.98799         6.80036
           16238         72.7520         69.0332        -5.04744         7.14964
           16239         72.9898         69.3042        -5.08934         6.97213
           16240         73.0295         69.2178        -5.12570         7.32909
           16241         73.2780         69.4974        -5.17629         7.14703
           16242         73.3067         69.4086        -5.18882         7.51091
           16243         73.5659         69.6970        -5.24816         7.32452
           16244         73.5830         69.6058        -5.23603         7.69449
           16245         73.8532         69.9031        -5.30421         7.50405
           16246         73.8579         69.8094        -5.26649         7.87923
           16247         74.1393         70.1158        -5.34362         7.68501
           16248         74.1307         70.0195        -5.27929         8.06449
           16249         74.4235         70.3351        -5.36550         7.86680
           16250         74.4006         70.2359        -5.27345         8.24958
           16251         74.7052         70.5610        -5.36890         8.04876
           16252         74.6668         70.4588        -5.24792         8.43382
           16253         74.9836         70.7936        -5.35278         8.23022
           16254         74.9285         70.6881        -5.20156         8.61645
           16255         75.2578         71.0327        -5.31604         8.41047
           16256         75.1846         70.9236        -5.13317         8.79671
           16257         75.5268         71.2784        -5.25748         8.58877
           16258         75.4340         71.1653        -5.04146         8.97379
           16259         75.7897         71.5305        -5.17584         8.76434
           16260         75.6756         71.4131        -4.92508         9.14684
           16261         76.0452         71.7889        -5.06977         8.93637
           16262         75.9083         71.6668        -4.78255         9.31498
           16263         76.2924         72.0535        -4.93786         9.10402
           16264         76.1306         71.9263        -4.61237         9.47726
           16265         76.5298         72.3241        -4.77857         9.26637
           16266         76.3412         72.1912        -4.41291         9.63270
           16267         76.7561         72.6004        -4.59033         9.42248
           16268         76.5387         72.4613        -4.18247         9.78028
           16269         76.9700         72.8823        -4.37144         9.57137
           16270         76.7214         72.7364        -3.91926         9.91891
           16271         77.1698         73.1695        -4.12014         9.71200
           16272         76.8879         73.0162        -3.62142         10.0474
           16273         77.3542         73.4616        -3.83456         9.84326
           16274         77.0365         73.3002        -3.28696         10.1647
           16275         77.5213         73.7582        -3.51275         9.96400
           16276         77.1653         73.5880        -2.91386         10.2693
           16277         77.6696         74.0591        -3.15268         10.0730
           16278         77.2728         73.8793        -2.49995         10.3600
           16279         77.7974         74.3638        -2.75220         10.1689
           16280         77.3571         74.1736        -2.04301         10.4353
           16281         77.9027         74.6717        -2.30909         10.2505
           16282         77.4164         74.4703        -1.54071         10.4938
           16283         77.9839         74.9824        -1.82102         10.3161
           16284         77.4489         74.7690    -990.638E-03         10.5337
           16285         78.0392         75.2954        -1.28558         10.3644
           16286         77.4527         75.0689    -390.272E-03         10.5534
           16287         78.0666         75.6100    -700.234E-03         10.3936
           16288         77.4260         75.3695     263.002E-03         10.5511
           16289         78.0644         75.9257    -62.3712E-03         10.4019
           16290         77.3671         75.6701     971.888E-03         10.5247
           16291         78.0308         76.2417     630.741E-03         10.3875
           16292         77.2743         75.9699         1.73920         10.4721
           16293         77.9641         76.5572         1.38193         10.3484
           16294         77.1461         76.2683         2.56787         10.3911
           16295         77.8625         76.8716         2.19415         10.2824
           16296         76.9810         76.5643         3.46094         10.2792
           16297         77.7247         77.1839         3.07047         10.1871
           16298         76.7777         76.8571         4.42156         10.1338
           16299         77.5492         77.4933         4.01409         10.0601
           16300         76.5352         77.1457         5.45304         9.95202
           16301         77.3349         77.7988         5.02835         9.89860
           16302         76.2528         77.4290         6.55881         9.73076
           16303         77.0809         78.0994         6.11673         9.69968
           16304         75.9302         77.7061         7.74250         9.46669
           16305         76.7867         78.3939         7.28289         9.46017
           16306         75.5676         77.9757         9.00790         9.15616
           16307         76.4520         78.6810         8.53067         9.17664
           16308         75.1656         78.2364         10.3590         8.79527
           16309         76.0774         78.9596         9.86412         8.84535
           16310         74.7258         78.4868         11.8001         8.37976
           16311         75.6639         79.2280         11.2875         8.46229
           16312         74.2506         78.7254         13.3356         7.90502
           16313         75.2135         79.4848         12.8055         8.02311
           16314         73.7437         78.9504         14.9704         7.36607
           16315         74.7293         79.7280         14.4227         7.52309
           16316         73.2103         79.1598         16.7096         6.75756
           16317         74.2155         79.9559         16.1445         6.95717
           16318         72.6572         79.3513         18.5588         6.07370
           16319         73.6782         80.1661         17.9765         6.31989
           16320         72.0937         79.5226         20.5240         5.30830
           16321         73.1253         80.3562         19.9245         5.60541
           16322         71.5317         79.6709         22.6117         4.45471
           16323         72.5674         80.5235         21.9950         4.80745
           16324         70.9866         79.7930         24.8290         3.50587
           16325         72.0182         80.6649         24.1952         3.91933
           16326         70.4780         79.8856         27.1835         2.45427
           16327         71.4949         80.7771         26.5325         2.93396
           16328         70.0300         79.9445         29.6836         1.29201
           16329         71.0193         80.8562         29.0152         1.84381
           16330         69.6725         79.9653         32.3389     10.2376E-03
           16331         70.6184         80.8978         31.6522     641.046E-03
           16332         54.3695         59.9437         17.2297         5.73707
           16333         54.1189         59.8076         17.5660         5.59507
           16334         53.9467         59.6545         17.8970         5.74227
           16335         54.8043         60.2337         16.5556         5.73066
           16336         54.5478         60.0972         16.8959         5.58888
           16337         55.2497         60.5239         15.8759         5.72164
           16338         54.9878         60.3872         16.2203         5.58109
           16339         55.7043         60.8135         15.1921         5.70887
           16340         55.4378         60.6770         15.5405         5.57053
           16341         56.1664         61.1015         14.5057         5.69142
           16342         55.8961         60.9657         14.8576         5.55619
           16343         56.6344         61.3870         13.8182         5.66860
           16344         56.3612         61.2525         14.1734         5.53730
           16345         57.1063         61.6691         13.1317         5.63998
           16346         56.8314         61.5365         13.4893         5.51331
           16347         57.5805         61.9468         12.4477         5.60535
           16348         57.3051         61.8168         12.8070         5.48388
           16349         58.0551         62.2191         11.7682         5.56471
           16350         57.7805         62.0926         12.1282         5.44889
           16351         58.5286         62.4853         11.0949         5.51831
           16352         58.2561         62.3631         11.4547         5.40845
           16353         58.9993         62.7446         10.4294         5.46656
           16354         58.7301         62.6274         10.7880         5.36281
           16355         59.4658         62.9963         9.77335         5.41006
           16356         59.2013         62.8849         10.1296         5.31245
           16357         59.9267         63.2400         9.12812         5.34951
           16358         59.6681         63.1351         9.48094         5.25794
           16359         60.3810         63.4752         8.49498         5.28574
           16360         60.1295         63.3775         8.84335         5.20001
           16361         60.8277         63.7017         7.87501         5.21966
           16362         60.5844         63.6118         8.21795         5.13944
           16363         61.2660         63.9193         7.26914         5.15223
           16364         61.0320         63.8377         7.60571         5.07711
           16365         61.6953         64.1281         6.67812         5.08442
           16366         61.4714         64.0553         7.00745         5.01392
           16367         62.1151         64.3280         6.10253         5.01722
           16368         61.9023         64.2645         6.42384         4.95079
           16369         62.5253         64.5194         5.54281         4.95160
           16370         62.3242         64.4654         5.85541         4.88866
           16371         62.9257         64.7026         4.99924         4.88848
           16372         62.7368         64.6583         5.30252         4.82842
           16373         63.3162         64.8778         4.47198         4.82875
           16374         63.1400         64.8435         4.76541         4.77094
           16375         63.6971         65.0456         3.96107         4.77324
           16376         63.5340         65.0213         4.24422         4.71705
           16377         64.0684         65.2064         3.46646         4.72272
           16378         63.9188         65.1922         3.73897         4.66751
           16379         64.4306         65.3608         2.98798         4.67787
           16380         64.2946         65.3568         3.24959         4.62303
           16381         64.7841         65.5093         2.52543         4.63932
           16382         64.6619         65.5154         2.77594         4.58425
           16383         65.1293         65.6527         2.07853         4.60763
           16384         65.0208         65.6688         2.31779         4.55174
           16385         65.4667         65.7914         1.64696         4.58326
           16386         65.3720         65.8174         1.87490         4.52602
           16387         65.7968         65.9261         1.23037         4.56661
           16388         65.7158         65.9619         1.44696         4.50751
           16389         66.1202         66.0575     828.396E-03         4.55804
           16390         66.0529         66.1028         1.03365         4.49659
           16391         66.4375         66.1861     440.640E-03         4.55781
           16392         66.3837         66.2409     634.615E-03         4.49356
           16393         66.7494         66.3125     66.7245E-03         4.56612
           16394         66.7088         66.3766     249.509E-03         4.49867
           16395         67.0563         66.4374    -293.734E-03         4.58314
           16396         67.0288         66.5106    -122.026E-03         4.51211
           16397         67.3590         66.5614    -641.107E-03         4.60895
           16398         67.3443         66.6434    -480.339E-03         4.53401
           16399         67.6579         66.6849    -975.742E-03         4.64361
           16400         67.6559         66.7757    -825.764E-03         4.56445
           16401         67.9537         66.8086        -1.29797         4.68713
           16402         67.9641         66.9079        -1.15862         4.60347
           16403         68.2468         66.9330        -1.60809         4.73946
           16404         68.2693         67.0407        -1.47920         4.65106
           16405         68.5379         67.0585        -1.90637         4.80051
           16406         68.5723         67.1744        -1.78776         4.70717
           16407         68.8275         67.1857        -2.19305         4.87019
           16408         68.8735         67.3097        -2.08455         4.77172
           16409         69.1159         67.3149        -2.46832         4.94834
           16410         69.1733         67.4469        -2.36976         4.84458
           16411         69.4036         67.4467        -2.73234         5.03478
           16412         69.4722         67.5865        -2.64355         4.92561
           16413         69.6911         67.5815        -2.98523         5.12930
           16414         69.7706         67.7290        -2.90605         5.01461
           16415         69.9786         67.7196        -3.22705         5.23167
           16416         70.0688         67.8748        -3.15732         5.11139
           16417         70.2665         67.8614        -3.45782         5.34164
           16418         70.3672         68.0242        -3.39742         5.21571
           16419         70.5550         68.0073        -3.67753         5.45892
           16420         70.6662         68.1776        -3.62631         5.32730
           16421         70.8444         68.1575        -3.88608         5.58321
           16422         70.9658         68.3353        -3.84395         5.44589
           16423         71.1349         68.3125        -4.08337         5.71418
           16424         71.2663         68.4978        -4.05021         5.57117
           16425         71.4265         68.4724        -4.26920         5.85149
           16426         71.5679         68.6652        -4.24493         5.70282
           16427         71.7193         68.6376        -4.44334         5.99476
           16428         71.8707         68.8378        -4.42791         5.84048
           16429         72.0134         68.8083        -4.60551         6.14362
           16430         72.1746         69.0160        -4.59885         5.98380
           16431         72.3086         68.9847        -4.75535         6.29765
           16432         72.4797         69.2000        -4.75744         6.13238
           16433         72.6049         69.1671        -4.89245         6.45643
           16434         72.7858         69.3899        -4.90328         6.28582
           16435         72.9021         69.3556        -5.01635         6.61950
           16436         73.0929         69.5861        -5.03593         6.44369
           16437         73.2000         69.5503        -5.12652         6.78639
           16438         73.4007         69.7886        -5.15487         6.60552
           16439         73.4983         69.7515        -5.22237         6.95661
           16440         73.7090         69.9976        -5.25955         6.77087
           16441         73.7965         69.9592        -5.30323         7.12964
           16442         74.0174         70.2133        -5.34931         6.93922
           16443         74.0942         70.1736        -5.36838         7.30495
           16444         74.3255         70.4358        -5.42345         7.11007
           16445         74.3910         70.3947        -5.41703         7.48197
           16446         74.6328         70.6651        -5.48120         7.28287
           16447         74.6862         70.6226        -5.44832         7.66010
           16448         74.9388         70.9014        -5.52173         7.45705
           16449         74.9792         70.8572        -5.46130         7.83872
           16450         75.2428         71.1447        -5.54411         7.63202
           16451         75.2692         71.0988        -5.45496         8.01720
           16452         75.5442         71.3950        -5.54735         7.80716
           16453         75.5554         71.3471        -5.42823         8.19485
           16454         75.8421         71.6522        -5.53040         7.98183
           16455         75.8369         71.6021        -5.37993         8.37095
           16456         76.1357         71.9164        -5.49211         8.15533
           16457         76.1127         71.8638        -5.30882         8.54478
           16458         76.4240         72.1875        -5.43126         8.32696
           16459         76.3818         72.1321        -5.21358         8.71554
           16460         76.7060         72.4655        -5.34656         8.49597
           16461         76.6429         72.4068        -5.09281         8.88242
           16462         76.9807         72.7500        -5.23661         8.66158
           16463         76.8949         72.6878        -4.94500         9.04456
           16464         77.2467         73.0412        -5.09995         8.82296
           16465         77.1365         72.9749        -4.76860         9.20106
           16466         77.5030         73.3386        -4.93502         8.97925
           16467         77.3662         73.2677        -4.56192         9.35096
           16468         77.7480         73.6422        -4.74018         9.12953
           16469         77.5827         73.5662        -4.32323         9.49329
           16470         77.9805         73.9515        -4.51370         9.27287
           16471         77.7844         73.8698        -4.05067         9.62697
           16472         78.1989         74.2665        -4.25376         9.40825
           16473         77.9697         74.1784        -3.74232         9.75090
           16474         78.4016         74.5867        -3.95842         9.53460
           16475         78.1370         74.4915        -3.39613         9.86392
           16476         78.5871         74.9117        -3.62569         9.65081
           16477         78.2846         74.8088        -3.01000         9.96478
           16478         78.7536         75.2412        -3.25345         9.75570
           16479         78.4106         75.1296        -2.58170         10.0522
           16480         78.8995         75.5746        -2.83949         9.84800
           16481         78.5134         75.4537        -2.10891         10.1247
           16482         79.0230         75.9116        -2.38152         9.92640
           16483         78.5911         75.7803        -1.58922         10.1809
           16484         79.1222         76.2515        -1.87710         9.98947
           16485         78.6419         76.1089        -1.02010         10.2192
           16486         79.1953         76.5938        -1.32373         10.0357
           16487         78.6639         76.4389    -398.926E-03         10.2379
           16488         79.2405         76.9378    -718.783E-03         10.0635
           16489         78.6553         76.7696     277.034E-03         10.2352
           16490         79.2561         77.2828    -59.5171E-03         10.0712
           16491         78.6145         77.1002         1.01062         10.2092
           16492         79.2401         77.6282     656.922E-03         10.0569
           16493         78.5396         77.4300         1.80481         10.1578
           16494         79.1909         77.9730         1.43351         10.0186
           16495         78.4291         77.7581         2.66268         10.0788
           16496         79.1067         78.3166         2.27334         9.95425
           16497         78.2815         78.0836         3.58745         9.96989
           16498         78.9862         78.6578         3.17966         9.86159
           16499         78.0957         78.4056         4.58250         9.82838
           16500         78.8278         78.9959         4.15587         9.73815
           16501         77.8704         78.7229         5.65133         9.65152
           16502         78.6304         79.3296         5.20549         9.58129
           16503         77.6049         79.0344         6.79764         9.43632
           16504         78.3931         79.6579         6.33225         9.38815
           16505         77.2990         79.3389         8.02528         9.17952
           16506         78.1152         79.9794         7.54004         9.15566
           16507         76.9527         79.6351         9.33835         8.87761
           16508         77.7968         80.2929         8.83297         8.88048
           16509         76.5668         79.9214         10.7411         8.52678
           16510         77.4381         80.5969         10.2154         8.55903
           16511         76.1427         80.1963         12.2382         8.12294
           16512         77.0402         80.8897         11.6919         8.18741
           16513         75.6829         80.4581         13.8345         7.66162
           16514         76.6051         81.1696         13.2673         7.76144
           16515         75.1909         80.7046         15.5351         7.13807
           16516         76.1358         81.4346         14.9468         7.27660
           16517         74.6720         80.9339         17.3455         6.54714
           16518         75.6366         81.6826         16.7361         6.72803
           16519         74.1331         81.1434         19.2719         5.88329
           16520         75.1135         81.9112         18.6410         6.11052
           16521         73.5832         81.3305         21.3204         5.14062
           16522         74.5745         82.1177         20.6678         5.41849
           16523         73.0344         81.4922         23.4982         4.31282
           16524         74.0301         82.2991         22.8236         4.64598
           16525         72.5019         81.6251         25.8126         3.39318
           16526         73.4939         82.4523         25.1156         3.78665
           16527         72.0052         81.7256         28.2718         2.37458
           16528         72.9831         82.5735         27.5519         2.83379
           16529         71.5683         81.7894         30.8845         1.24956
           16530         72.5193         82.6588         30.1411         1.78030
           16531         71.2207         81.8119         33.6606     9.82238E-03
           16532         72.1293         82.7037         32.8925     618.760E-03
           16533         54.2969         59.9631         17.2356         5.44737
           16534         54.0503         59.8292         17.5723         5.30585
           16535         53.8737         59.6738         17.9026         5.45361
           16536         54.7319         60.2530         16.5632         5.44050
           16537         54.4797         60.1189         16.9029         5.29900
           16538         55.1773         60.5430         15.8863         5.43173
           16539         54.9201         60.4088         16.2292         5.29115
           16540         55.6319         60.8324         15.2063         5.41999
           16541         55.3702         60.6985         15.5523         5.28120
           16542         56.0941         61.1205         14.5245         5.40444
           16543         55.8287         60.9872         14.8732         5.26825
           16544         56.5625         61.4063         13.8423         5.38441
           16545         56.2942         61.2743         14.1934         5.25155
           16546         57.0354         61.6891         13.1612         5.35948
           16547         56.7652         61.5589         13.5142         5.23059
           16548         57.5111         61.9680         12.4828         5.32941
           16549         57.2402         61.8402         12.8370         5.20502
           16550         57.9881         62.2423         11.8088         5.29417
           16551         57.7176         62.1176         12.1634         5.17470
           16552         58.4649         62.5111         11.1407         5.25393
           16553         58.1959         62.3903         11.4948         5.13966
           16554         58.9399         62.7738         10.4800         5.20900
           16555         58.6736         62.6575         10.8328         5.10012
           16556         59.4118         63.0299         9.82813         5.15987
           16557         59.1494         62.9188         10.1786         5.05642
           16558         59.8793         63.2787         9.18635         5.10714
           16559         59.6220         63.1735         9.53354         5.00906
           16560         60.3414         63.5201         8.55584         5.05152
           16561         60.0903         63.4213         8.89884         4.95865
           16562         60.7971         63.7536         7.93764         4.99379
           16563         60.5532         63.6619         8.27553         4.90587
           16564         61.2456         63.9792         7.33263         4.93479
           16565         61.0099         63.8950         7.66456         4.85148
           16566         61.6863         64.1967         6.74153         4.87539
           16567         61.4596         64.1206         7.06671         4.79627
           16568         62.1186         64.4064         6.16495         4.81647
           16569         61.9018         64.3387         6.48263         4.74107
           16570         62.5423         64.6083         5.60332         4.75889
           16571         62.3361         64.5492         5.91285         4.68670
           16572         62.9572         64.8026         5.05697         4.70351
           16573         62.7622         64.7526         5.35777         4.63399
           16574         63.3632         64.9897         4.52611         4.65114
           16575         63.1798         64.9488         4.81767         4.58371
           16576         63.7604         65.1700         4.01083         4.60254
           16577         63.5891         65.1385         4.29271         4.53663
           16578         64.1488         65.3440         3.51113         4.55843
           16579         63.9899         65.3218         3.78298         4.49346
           16580         64.5288         65.5120         3.02693         4.51946
           16581         64.3825         65.4992         3.28847         4.45486
           16582         64.9006         65.6747         2.55809         4.48623
           16583         64.7671         65.6713         2.80909         4.42144
           16584         65.2646         65.8326         2.10439         4.45926
           16585         65.1441         65.8385         2.34469         4.39375
           16586         65.6214         65.9862         1.66559         4.43902
           16587         65.5137         66.0014         1.89508         4.37226
           16588         65.9712         66.1362         1.24140         4.42590
           16589         65.8765         66.1605         1.46002         4.35741
           16590         66.3147         66.2831     831.510E-03         4.42024
           16591         66.2328         66.3164         1.03926         4.34955
           16592         66.6524         66.4275     435.601E-03         4.42232
           16593         66.5833         66.4698     632.494E-03         4.34900
           16594         66.9848         66.5701     53.3464E-03         4.43236
           16595         66.9283         66.6210     239.439E-03         4.35600
           16596         67.3125         66.7113    -315.583E-03         4.45051
           16597         67.2684         66.7709    -140.211E-03         4.37076
           16598         67.6361         66.8518    -671.508E-03         4.47690
           16599         67.6042         66.9197    -506.752E-03         4.39340
           16600         67.9560         66.9921        -1.01473         4.51159
           16601         67.9362         67.0683    -860.473E-03         4.42404
           16602         68.2729         67.1328        -1.34553         4.55460
           16603         68.2648         67.2170        -1.20164         4.46272
           16604         68.5872         67.2743        -1.66418         4.60591
           16605         68.5907         67.3664        -1.53052         4.50945
           16606         68.8994         67.4172        -1.97090         4.66547
           16607         68.9143         67.5170        -1.84732         4.56420
           16608         69.2101         67.5619        -2.26590         4.73317
           16609         69.2361         67.6693        -2.15226         4.62691
           16610         69.5196         67.7089        -2.54934         4.80889
           16611         69.5566         67.8238        -2.44548         4.69747
           16612         69.8285         67.8586        -2.82135         4.89247
           16613         69.8761         67.9810        -2.72714         4.77575
           16614         70.1370         68.0116        -3.08201         4.98374
           16615         70.1951         68.1412        -2.99731         4.86159
           16616         70.4455         68.1680        -3.33137         5.08247
           16617         70.5139         68.3048        -3.25605         4.95481
           16618         70.7543         68.3285        -3.56942         5.18842
           16619         70.8328         68.4723        -3.50337         5.05518
           16620         71.0637         68.4932        -3.79613         5.30135
           16621         71.1521         68.6441        -3.73923         5.16247
           16622         71.3739         68.6626        -4.01138         5.42096
           16623         71.4721         68.8205        -3.96355         5.27642
           16624         71.6850         68.8369        -4.21503         5.54695
           16625         71.7929         69.0018        -4.17619         5.39674
           16626         71.9972         69.0165        -4.40688         5.67900
           16627         72.1147         69.1883        -4.37697         5.52313
           16628         72.3106         69.2017        -4.58668         5.81675
           16629         72.4375         69.3804        -4.56565         5.65526
           16630         72.6250         69.3926        -4.75411         5.95984
           16631         72.7614         69.5782        -4.74193         5.79278
           16632         72.9405         69.5896        -4.90880         6.10788
           16633         73.0863         69.7822        -4.90547         5.93533
           16634         73.2570         69.7928        -5.05033         6.26047
           16635         73.4123         69.9924        -5.05585         6.08252
           16636         73.5743         70.0024        -5.17821         6.41717
           16637         73.7390         70.2091        -5.19262         6.23394
           16638         73.8922         70.2187        -5.29189         6.57753
           16639         74.0663         70.4325        -5.31523         6.38917
           16640         74.2102         70.4417        -5.39075         6.74109
           16641         74.3940         70.6628        -5.42309         6.54775
           16642         74.5282         70.6717        -5.47411         6.90734
           16643         74.7217         70.9001        -5.51554         6.70921
           16644         74.8455         70.9086        -5.54121         7.07578
           16645         75.0490         71.1444        -5.59187         6.87305
           16646         75.1618         71.1526        -5.59125         7.24585
           16647         75.3753         71.3960        -5.65126         7.03876
           16648         75.4763         71.4037        -5.62333         7.41700
           16649         75.7003         71.6549        -5.69285         7.20580
           16650         75.7886         71.6621        -5.63649         7.58863
           16651         76.0231         71.9211        -5.71571         7.37360
           16652         76.0977         71.9276        -5.62968         7.76011
           16653         76.3431         72.1947        -5.71881         7.54157
           16654         76.4029         72.2002        -5.60179         7.93080
           16655         76.6596         72.4756        -5.70106         7.70908
           16656         76.7032         72.4800        -5.55162         8.10001
           16657         76.9716         72.7638        -5.66129         7.87548
           16658         76.9978         72.7668        -5.47790         8.26703
           16659         77.2783         73.0593        -5.59825         8.04008
           16660         77.2854         73.0605        -5.37927         8.43112
           16661         77.5785         73.3618        -5.51060         8.20218
           16662         77.5651         73.3610        -5.25427         8.59147
           16663         77.8712         73.6714        -5.39693         8.36101
           16664         77.8355         73.6681        -5.10139         8.74728
           16665         78.1553         73.9879        -5.25571         8.51580
           16666         78.0954         73.9815        -4.91899         8.89767
           16667         78.4294         74.3110        -5.08536         8.66570
           16668         78.3433         74.3011        -4.70538         9.04172
           16669         78.6922         74.6405        -4.88418         8.80985
           16670         78.5779         74.6266        -4.45873         9.17848
           16671         78.9423         74.9762        -4.65040         8.94733
           16672         78.7976         74.9576        -4.17717         9.30694
           16673         79.1783         75.3177        -4.38214         9.07717
           16674         79.0008         75.2938        -3.85868         9.42601
           16675         79.3985         75.6647        -4.07743         9.19835
           16676         79.1859         75.6347        -3.50119         9.53459
           16677         79.6013         76.0168        -3.73418         9.30979
           16678         79.3512         75.9800        -3.10249         9.63146
           16679         79.7852         76.3736        -3.35023         9.41034
           16680         79.4949         76.3292        -2.66030         9.71535
           16681         79.9483         76.7345        -2.92329         9.49880
           16682         79.6153         76.6816        -2.17221         9.78493
           16683         80.0889         77.0992        -2.45099         9.57388
           16684         79.7104         77.0368        -1.63571         9.83876
           16685         80.2052         77.4669        -1.93081         9.63422
           16686         79.7786         77.3941        -1.04818         9.87531
           16687         80.2954         77.8371        -1.36015         9.67836
           16688         79.8180         77.7528    -406.891E-03         9.89296
           16689         80.3575         78.2091    -736.282E-03         9.70475
           16690         79.8267         78.1122     291.019E-03         9.88995
           16691         80.3899         78.5822    -56.3511E-03         9.71172
           16692         79.8030         78.4715         1.04852         9.86442
           16693         80.3907         78.9555     682.623E-03         9.69751
           16694         79.7451         78.8298         1.86873         9.81437
           16695         80.3581         79.3283         1.48375         9.66020
           16696         79.6516         79.1863         2.75489         9.73764
           16697         80.2906         79.6996         2.35028         9.59775
           16698         79.5208         79.5399         3.71040         9.63192
           16699         80.1864         80.0683         3.28562         9.50796
           16700         79.3515         79.8896         4.73881         9.49470
           16701         80.0443         80.4336         4.29335         9.38846
           16702         79.1427         80.2342         5.84387         9.32328
           16703         79.8631         80.7941         5.37719         9.23669
           16704         78.8935         80.5724         7.02946         9.11477
           16705         79.6417         81.1487         6.54108         9.04989
           16706         78.6036         80.9030         8.29972         8.86600
           16707         79.3796         81.4960         7.78915         8.82510
           16708         78.2730         81.2244         9.65899         8.57360
           16709         79.0767         81.8344         9.12575         8.55911
           16710         77.9026         81.5350         11.1119         8.23389
           16711         78.7333         82.1624         10.5555         8.24845
           16712         77.4937         81.8331         12.6632         7.84293
           16713         78.3505         82.4783         12.0833         7.88939
           16714         77.0488         82.1167         14.3183         7.39645
           16715         77.9302         82.7801         13.7142         7.47792
           16716         76.5714         82.3836         16.0825         6.88988
           16717         77.4754         83.0656         15.4539         7.00972
           16718         76.0668         82.6316         17.9618         6.31832
           16719         76.9905         83.3326         17.3082         6.48016
           16720         75.5418         82.8580         19.9626         5.67648
           16721         76.4814         83.5785         19.2834         5.88426
           16722         75.0056         83.0600         22.0915         4.95876
           16723         75.9561         83.8003         21.3862         5.21674
           16724         74.4701         83.2342         24.3560         4.15917
           16725         75.4252         83.9951         23.6239         4.47194
           16726         73.9506         83.3773         26.7639         3.27136
           16727         74.9022         84.1592         26.0042         3.64387
           16728         73.4662         83.4852         29.3236         2.28862
           16729         74.4041         84.2890         28.5355         2.72618
           16730         73.0410         83.5537         32.0443         1.20390
           16731         73.9526         84.3801         31.2267         1.71219
           16732         72.7041         83.5777         34.9362     9.39487E-03
           16733         73.5742         84.4280         34.0875     594.937E-03
           16734         54.2326         59.9865         17.2422         5.15761
           16735         53.9894         59.8542         17.5794         5.01636
           16736         53.8085         59.6970         17.9095         5.16466
           16737         54.6681         60.2765         16.5708         5.15041
           16738         54.4196         60.1441         16.9102         5.00902
           16739         55.1139         60.5666         15.8961         5.14190
           16740         54.8606         60.4342         16.2378         5.00117
           16741         55.5687         60.8560         15.2192         5.13111
           16742         55.3111         60.7241         15.5631         4.99182
           16743         56.0313         61.1442         14.5411         5.11724
           16744         55.7701         61.0130         14.8871         4.98011
           16745         56.5003         61.4305         13.8632         5.09967
           16746         56.2363         61.3004         14.2110         4.96536
           16747         56.9743         61.7141         13.1868         5.07798
           16748         56.7082         61.5857         13.5358         4.94706
           16749         57.4516         61.9943         12.5132         5.05193
           16750         57.1845         61.8681         12.8630         4.92489
           16751         57.9309         62.2704         11.8440         5.02144
           16752         57.6639         62.1470         12.1938         4.89867
           16753         58.4108         62.5417         11.1804         4.98661
           16754         58.1448         62.4218         11.5296         4.86839
           16755         58.8898         62.8076         10.5239         4.94771
           16756         58.6259         62.6918         10.8716         4.83421
           16757         59.3666         63.0676         9.87572         4.90512
           16758         59.1060         62.9565         10.2211         4.79641
           16759         59.8402         63.3213         9.23701         4.85934
           16760         59.5839         63.2154         9.57920         4.75540
           16761         60.3094         63.5682         8.60889         4.81099
           16762         60.0584         63.4682         8.94707         4.71168
           16763         60.7732         63.8082         7.99231         4.76073
           16764         60.5286         63.7146         8.32566         4.66585
           16765         61.2310         64.0411         7.38811         4.70931
           16766         60.9936         63.9543         7.71586         4.61857
           16767         61.6820         64.2668         6.79700         4.65749
           16768         61.4527         64.1873         7.11840         4.57053
           16769         62.1258         64.4853         6.21957         4.60604
           16770         61.9053         64.4135         6.53395         4.52246
           16771         62.5620         64.6969         5.65629         4.55576
           16772         62.3510         64.6329         5.96301         4.47510
           16773         62.9902         64.9016         5.10749         4.50742
           16774         62.7894         64.8459         5.40600         4.42919
           16775         63.4104         65.0997         4.57341         4.46174
           16776         63.2203         65.0524         4.86323         4.38545
           16777         63.8226         65.2917         4.05420         4.41945
           16778         63.6435         65.2530         4.33490         4.34457
           16779         64.2269         65.4778         3.54992         4.38121
           16780         64.0592         65.4478         3.82113         4.30720
           16781         64.6233         65.6586         3.06052         4.34762
           16782         64.4673         65.6372         3.32197         4.27397
           16783         65.0123         65.8345         2.58594         4.31925
           16784         64.8681         65.8218         2.83737         4.24543
           16785         65.3939         66.0060         2.12602         4.29661
           16786         65.2618         66.0020         2.36726         4.22211
           16787         65.7688         66.1737         1.68056         4.28013
           16788         65.6488         66.1783         1.91150         4.20447
           16789         66.1372         66.3381         1.24936         4.27020
           16790         66.0292         66.3512         1.46989         4.19292
           16791         66.4995         66.4997     832.151E-03         4.26716
           16792         66.4037         66.5213         1.04225         4.18780
           16793         66.8564         66.6591     428.675E-03         4.27128
           16794         66.7726         66.6891     628.331E-03         4.18944
           16795         67.2083         66.8170     38.6586E-03         4.28279
           16796         67.1363         66.8550     227.895E-03         4.19806
           16797         67.5556         66.9737    -338.176E-03         4.30185
           16798         67.4954         67.0198    -159.307E-03         4.21388
           16799         67.8990         67.1300    -702.101E-03         4.32860
           16800         67.8503         67.1839    -533.524E-03         4.23704
           16801         68.2388         67.2862        -1.05337         4.36310
           16802         68.2016         67.3479    -895.001E-03         4.26766
           16803         68.5757         67.4431        -1.39224         4.40541
           16804         68.5497         67.5123        -1.24396         4.30579
           16805         68.9101         67.6010        -1.71891         4.45550
           16806         68.8951         67.6776        -1.58063         4.35145
           16807         69.2424         67.7604        -2.03359         4.51335
           16808         69.2383         67.8443        -1.90518         4.40464
           16809         69.5733         67.9219        -2.33645         4.57887
           16810         69.5797         68.0130        -2.21779         4.46531
           16811         69.9030         68.0859        -2.62762         4.65196
           16812         69.9198         68.1840        -2.51858         4.53336
           16813         70.2319         68.2529        -2.90719         4.73249
           16814         70.2589         68.3578        -2.80766         4.60869
           16815         70.5605         68.4232        -3.17522         4.82027
           16816         70.5975         68.5349        -3.08510         4.69116
           16817         70.8890         68.5973        -3.43174         4.91513
           16818         70.9359         68.7157        -3.35091         4.78059
           16819         71.2178         68.7756        -3.67672         5.01685
           16820         71.2743         68.9006        -3.60509         4.87680
           16821         71.5471         68.9584        -3.91008         5.12518
           16822         71.6131         69.0899        -3.84756         4.97955
           16823         71.8771         69.1461        -4.13171         5.23986
           16824         71.9525         69.2841        -4.07823         5.08861
           16825         72.2080         69.3391        -4.34143         5.36061
           16826         72.2925         69.4834        -4.29694         5.20372
           16827         72.5398         69.5375        -4.53902         5.48712
           16828         72.6335         69.6883        -4.50348         5.32459
           16829         72.8727         69.7417        -4.72421         5.61906
           16830         72.9754         69.8989        -4.69759         5.45091
           16831         73.2066         69.9521        -4.89667         5.75609
           16832         73.3183         70.1156        -4.87895         5.58236
           16833         73.5414         70.1687        -5.05601         5.89784
           16834         73.6622         70.3386        -5.04721         5.71859
           16835         73.8771         70.3919        -5.20177         6.04392
           16836         74.0069         70.5682        -5.20193         5.85924
           16837         74.2135         70.6219        -5.33346         6.19394
           16838         74.3523         70.8046        -5.34262         6.00391
           16839         74.5503         70.8587        -5.45049         6.34745
           16840         74.6982         71.0480        -5.46872         6.15221
           16841         74.8873         71.1027        -5.55223         6.50400
           16842         75.0443         71.2986        -5.57963         6.30370
           16843         75.2240         71.3539        -5.63798         6.66314
           16844         75.3903         71.5564        -5.67467         6.45794
           16845         75.5599         71.6124        -5.70696         6.82436
           16846         75.7358         71.8218        -5.75307         6.61445
           16847         75.8947         71.8783        -5.75833         6.98715
           16848         76.0802         72.0946        -5.81403         6.77275
           16849         76.2276         72.1517        -5.79117         7.15097
           16850         76.4231         72.3750        -5.85665         6.93231
           16851         76.5581         72.4326        -5.80450         7.31524
           16852         76.7638         72.6631        -5.87996         7.09260
           16853         76.8854         72.7210        -5.79724         7.47938
           16854         77.1015         72.9589        -5.88292         7.25305
           16855         77.2086         73.0169        -5.76824         7.64276
           16856         77.4356         73.2624        -5.86442         7.41306
           16857         77.5268         73.3203        -5.71629         7.80474
           16858         77.7651         73.5734        -5.82324         7.57202
           16859         77.8391         73.6310        -5.64007         7.96462
           16860         78.0890         73.8921        -5.75810         7.72927
           16861         78.1444         73.9490        -5.53818         8.12169
           16862         78.4065         74.2182        -5.66764         7.88412
           16863         78.4416         74.2741        -5.40914         8.27519
           16864         78.7164         74.5516        -5.55039         8.03586
           16865         78.7295         74.6060        -5.25139         8.42434
           16866         79.0174         74.8922        -5.40482         8.18373
           16867         79.0067         74.9447        -5.06325         8.56831
           16868         79.3084         75.2398        -5.22927         8.32695
           16869         79.2719         75.2898        -4.84297         8.70621
           16870         79.5881         75.5940        -5.02203         8.46466
           16871         79.5236         75.6411        -4.58870         8.83713
           16872         79.8549         75.9547        -4.78126         8.59600
           16873         79.7604         75.9981        -4.29848         8.96008
           16874         80.1075         76.3215        -4.50504         8.72004
           16875         79.9806         76.3606        -3.97027         9.07406
           16876         80.3443         76.6940        -4.19133         8.83579
           16877         80.1826         76.7281        -3.60191         9.17796
           16878         80.5636         77.0719        -3.83800         8.94223
           16879         80.3647         77.1001        -3.19114         9.27063
           16880         80.7639         77.4546        -3.44282         9.03824
           16881         80.5251         77.4762        -2.73558         9.35085
           16882         80.9433         77.8417        -3.00342         9.12268
           16883         80.6622         77.8557        -2.23277         9.41733
           16884         81.1002         78.2327        -2.51736         9.19430
           16885         80.7740         78.2381        -1.68009         9.46868
           16886         81.2326         78.6269        -1.98204         9.25178
           16887         80.8587         78.6226        -1.07484         9.50343
           16888         81.3389         79.0236        -1.39477         9.29374
           16889         80.9145         79.0087    -414.163E-03         9.51999
           16890         81.4171         79.4222    -752.710E-03         9.31866
           16891         80.9396         79.3954     304.905E-03         9.51670
           16892         81.4655         79.8219    -52.9018E-03         9.32496
           16893         80.9322         79.7820         1.08547         9.49173
           16894         81.4822         80.2218     707.756E-03         9.31091
           16895         80.8905         80.1674         1.93078         9.44316
           16896         81.4654         80.6211         1.53250         9.27469
           16897         80.8130         80.5508         2.84424         9.36891
           16898         81.4136         81.0187         2.42474         9.21431
           16899         80.6982         80.9311         3.82941         9.26672
           16900         81.3250         81.4136         3.38804         9.12766
           16901         80.5448         81.3071         4.89005         9.13419
           16902         81.1984         81.8046         4.42612         9.01245
           16903         80.3516         81.6776         6.03007         8.96872
           16904         81.0325         82.1906         5.54294         8.86622
           16905         80.1179         82.0412         7.25360         8.76750
           16906         80.8263         82.5700         6.74260         8.68632
           16907         79.8433         82.3964         8.56501         8.52751
           16908         80.5792         82.9416         8.02947         8.46990
           16909         79.5278         82.7416         9.96888         8.24549
           16910         80.2912         83.3036         9.40814         8.21388
           16911         79.1723         83.0752         11.4701         7.91792
           16912         79.9624         83.6543         10.8835         7.91495
           16913         78.7780         83.3951         13.0738         7.54102
           16914         79.5941         83.9919         12.4606         7.56953
           16915         78.3475         83.6993         14.7855         7.11072
           16916         79.1880         84.3143         14.1450         7.17381
           16917         77.8844         83.9855         16.6110         6.62267
           16918         78.7473         84.6191         15.9425         6.72365
           16919         77.3938         84.2511         18.5565         6.07218
           16920         78.2763         84.9040         17.8593         6.21467
           16921         76.8826         84.4934         20.6288         5.45425
           16922         77.7809         85.1661         19.9019         5.64215
           16923         76.3599         84.7093         22.8349         4.76358
           16924         77.2692         85.4023         22.0775         5.00108
           16925         75.8378         84.8953         25.1826         3.99449
           16926         76.7517         85.6095         24.3937         4.28611
           16927         75.3313         85.0479         27.6800         3.14100
           16928         76.2419         85.7840         26.8584         3.49160
           16929         74.8596         85.1628         30.3359         2.19678
           16930         75.7568         85.9217         29.4805         2.61159
           16931         74.4466         85.2356         33.1599         1.15523
           16932         75.3179         86.0183         32.2691         1.63978
           16933         74.1211         85.2611         36.1624     8.95625E-03
           16934         74.9515         86.0690         35.2343     569.635E-03
           16935         54.1756         60.0130         17.2493         4.86760
           16936         53.9352         59.8818         17.5871         4.72645
           16937         53.7504         59.7231         17.9172         4.87526
           16938         54.6119         60.3033         16.5785         4.86020
           16939         54.3666         60.1722         16.9177         4.71878
           16940         55.0583         60.5935         15.9054         4.85198
           16941         54.8084         60.4626         16.2461         4.71101
           16942         55.5137         60.8832         15.2308         4.84205
           16943         55.2597         60.7527         15.5731         4.70222
           16944         55.9770         61.1717         14.5558         4.82968
           16945         55.7194         61.0419         14.8995         4.69163
           16946         56.4468         61.4585         13.8815         4.81428
           16947         56.1863         61.3298         14.2264         4.67860
           16948         56.9219         61.7430         13.2090         4.79544
           16949         56.6593         61.6159         13.5547         4.66266
           16950         57.4008         62.0245         12.5396         4.77291
           16951         57.1371         61.8994         12.8855         4.64347
           16952         57.8824         62.3023         11.8744         4.74659
           16953         57.6183         62.1798         12.2201         4.62085
           16954         58.3651         62.5760         11.2148         4.71655
           16955         58.1017         62.4566         11.5596         4.59476
           16956         58.8478         62.8449         10.5619         4.68296
           16957         58.5861         62.7291         10.9051         4.56531
           16958         59.3292         63.1086         9.91694         4.64616
           16959         59.0701         62.9971         10.2578         4.53271
           16960         59.8083         63.3667         9.28096         4.60655
           16961         59.5528         63.2599         9.61870         4.49732
           16962         60.2839         63.6188         8.65495         4.56467
           16963         60.0330         63.5173         8.98884         4.45954
           16964         60.7553         63.8647         8.03984         4.52108
           16965         60.5098         63.7690         8.36913         4.41990
           16966         61.2215         64.1043         7.43640         4.47644
           16967         60.9825         64.0148         7.76038         4.37896
           16968         61.6820         64.3375         6.84532         4.43141
           16969         61.4501         64.2545         7.16331         4.33733
           16970         62.1362         64.5642         6.26717         4.38670
           16971         61.9122         64.4882         6.57854         4.29566
           16972         62.5837         64.7846         5.70243         4.34301
           16973         62.3683         64.7159         6.00659         4.25461
           16974         63.0242         64.9989         5.15145         4.30102
           16975         62.8180         64.9376         5.44788         4.21484
           16976         63.4576         65.2073         4.61450         4.26142
           16977         63.2610         65.1537         4.90272         4.17699
           16978         63.8836         65.4100         4.09176         4.22486
           16979         63.6972         65.3643         4.37136         4.14171
           16980         64.3025         65.6075         3.58333         4.19194
           16981         64.1266         65.5698         3.85396         4.10960
           16982         64.7142         65.8002         3.08922         4.16324
           16983         64.5491         65.7705         3.35058         4.08121
           16984         65.1190         65.9884         2.60941         4.13928
           16985         64.9649         65.9668         2.86125         4.05709
           16986         65.5172         66.1727         2.14379         4.12055
           16987         65.3741         66.1591         2.38593         4.03771
           16988         65.9089         66.3535         1.69224         4.10745
           16989         65.7771         66.3479         1.92453         4.02352
           16990         66.2946         66.5314         1.25457         4.10038
           16991         66.1741         66.5337         1.47691         4.01491
           16992         66.6747         66.7069     830.611E-03         4.09964
           16993         66.5655         66.7170         1.04294         4.01221
           16994         67.0496         66.8805     420.130E-03         4.10552
           16995         66.9516         66.8984     622.409E-03         4.01572
           16996         67.4197         67.0528     22.9087E-03         4.11823
           16997         67.3329         67.0782     215.143E-03         4.02569
           16998         67.7856         67.2242    -361.281E-03         4.13796
           16999         67.7098         67.2572    -179.066E-03         4.04231
           17000         68.1476         67.3954    -732.667E-03         4.16483
           17001         68.0828         67.4357    -560.423E-03         4.06575
           17002         68.5063         67.5668        -1.09146         4.19894
           17003         68.4523         67.6143    -929.127E-03         4.09611
           17004         68.8621         67.7390        -1.43787         4.24032
           17005         68.8187         67.7935        -1.28537         4.13347
           17006         69.2155         67.9125        -1.77208         4.28900
           17007         69.1825         67.9739        -1.62932         4.17786
           17008         69.5669         68.0878        -2.09424         4.34494
           17009         69.5442         68.1559        -1.96113         4.22929
           17010         69.9168         68.2653        -2.40449         4.40808
           17011         69.9042         68.3400        -2.28094         4.28771
           17012         70.2656         68.4455        -2.70294         4.47834
           17013         70.2628         68.5267        -2.58885         4.35305
           17014         70.6137         68.6288        -2.98965         4.55559
           17015         70.6206         68.7165        -2.88492         4.42523
           17016         70.9613         68.8158        -3.26465         4.63969
           17017         70.9777         68.9097        -3.16920         4.50411
           17018         71.3089         69.0067        -3.52795         4.73046
           17019         71.3346         69.1068        -3.44168         4.58955
           17020         71.6566         69.2020        -3.77948         4.82770
           17021         71.6915         69.3082        -3.70233         4.68136
           17022         72.0048         69.4021        -4.01915         4.93120
           17023         72.0488         69.5143        -3.95106         4.77936
           17024         72.3537         69.6073        -4.24682         5.04071
           17025         72.4065         69.7254        -4.18774         4.88330
           17026         72.7033         69.8180        -4.46231         5.15597
           17027         72.7649         69.9419        -4.41219         4.99296
           17028         73.0538         70.0345        -4.66536         5.27668
           17029         73.1241         70.1642        -4.62418         5.10806
           17030         73.4052         70.2570        -4.85568         5.40255
           17031         73.4841         70.3925        -4.82345         5.22831
           17032         73.7576         70.4858        -5.03292         5.53324
           17033         73.8450         70.6272        -5.00964         5.35342
           17034         74.1108         70.7212        -5.19667         5.66842
           17035         74.2068         70.8684        -5.18238         5.48306
           17036         74.4647         70.9635        -5.34647         5.80771
           17037         74.5693         71.1165        -5.34121         5.61688
           17038         74.8192         71.2128        -5.48178         5.95073
           17039         74.9324         71.3716        -5.48563         5.75452
           17040         75.1741         71.4693        -5.60201         6.09708
           17041         75.2959         71.6340        -5.61506         5.89560
           17042         75.5289         71.7332        -5.70650         6.24633
           17043         75.6595         71.9039        -5.72887         6.03970
           17044         75.8833         72.0046        -5.79453         6.39803
           17045         76.0228         72.1814        -5.82635         6.18642
           17046         76.2370         72.2837        -5.86529         6.55171
           17047         76.3855         72.4666        -5.90674         6.33529
           17048         76.5892         72.5705        -5.91793         6.70689
           17049         76.7470         72.7596        -5.96919         6.48586
           17050         76.9396         72.8651        -5.95151         6.86305
           17051         77.1069         73.0605        -6.01279         6.63763
           17052         77.2873         73.1675        -5.96499         7.01964
           17053         77.4644         73.3694        -6.03654         6.79009
           17054         77.6317         73.4778        -5.95730         7.17611
           17055         77.8188         73.6863        -6.03937         6.94271
           17056         77.9720         73.7958        -5.92726         7.33186
           17057         78.1695         74.0112        -6.02014         7.09491
           17058         78.3071         74.1216        -5.87360         7.48627
           17059         78.5155         74.3440        -5.97762         7.24611
           17060         78.6363         74.4551        -5.79499         7.63869
           17061         78.8559         74.6847        -5.91049         7.39569
           17062         78.9583         74.7962        -5.69000         7.78843
           17063         79.1896         75.0331        -5.81734         7.54299
           17064         79.2721         75.1446        -5.55710         7.93477
           17065         79.5156         75.3892        -5.69670         7.68733
           17066         79.5764         75.5003        -5.39469         8.07697
           17067         79.8327         75.7527        -5.54697         7.82800
           17068         79.8700         75.8629        -5.20107         8.21422
           17069         80.1397         76.1234        -5.36648         7.96424
           17070         80.1515         76.2322        -4.97442         8.34569
           17071         80.4352         76.5011        -5.15345         8.09524
           17072         80.4194         76.6080        -4.71286         8.47050
           17073         80.7178         76.8855        -4.90601         8.22018
           17074         80.6723         76.9898        -4.41437         8.58771
           17075         80.9861         77.2763        -4.62219         8.33816
           17076         80.9086         77.3772        -4.07685         8.69634
           17077         81.2385         77.6730        -4.29989         8.44825
           17078         81.1265         77.7699        -3.69809         8.79535
           17079         81.4734         78.0753        -3.93694         8.54946
           17080         81.3245         78.1674        -3.27575         8.88364
           17081         81.6891         78.4827        -3.53102         8.64075
           17082         81.5009         78.5690        -2.80740         8.96003
           17083         81.8840         78.8946        -3.07972         8.72099
           17084         81.6537         78.9742        -2.29047         9.02327
           17085         82.0562         79.3105        -2.58050         8.78900
           17086         81.7812         79.3824        -1.72228         9.07205
           17087         82.2039         79.7298        -2.03070         8.84353
           17088         81.8815         79.7929        -1.10002         9.10493
           17089         82.3254         80.1517        -1.42753         8.88323
           17090         81.9529         80.2048    -420.747E-03         9.12041
           17091         82.4188         80.5755    -768.053E-03         8.90666
           17092         81.9935         80.6174     318.634E-03         9.11686
           17093         82.4823         81.0003    -49.2068E-03         8.91230
           17094         82.0015         81.0298         1.12134         9.09255
           17095         82.5140         81.4254     732.228E-03         8.89849
           17096         81.9752         81.4410         1.99077         9.04562
           17097         82.5122         81.8497         1.57962         8.86348
           17098         81.9130         81.8499         2.93047         8.97406
           17099         82.4752         82.2722         2.49650         8.80536
           17100         81.8133         82.2554         3.94416         8.87572
           17101         82.4014         82.6918         3.48660         8.72212
           17102         81.6749         82.6563         5.03576         8.74828
           17103         82.2895         83.1071         4.55380         8.61155
           17104         81.4966         83.0513         6.20940         8.58925
           17105         82.1381         83.5170         5.70224         8.47130
           17106         81.2776         83.4388         7.46940         8.39593
           17107         81.9463         83.9200         6.93621         8.29884
           17108         81.0176         83.8172         8.82035         8.16543
           17109         81.7135         84.3144         8.26029         8.09145
           17110         80.7166         84.1850         10.2671         7.89463
           17111         81.4396         84.6986         9.67929         7.84617
           17112         80.3753         84.5401         11.8147         7.58019
           17113         81.1248         85.0707         11.1983         7.55986
           17114         79.9951         84.8806         13.4686         7.21849
           17115         80.7703         85.4288         12.8227         7.22913
           17116         79.5785         85.2042         15.2347         6.80566
           17117         80.3780         85.7705         14.5583         6.85033
           17118         79.1292         85.5084         17.1189         6.33756
           17119         79.9509         86.0934         16.4111         6.41956
           17120         78.6522         85.7906         19.1279         5.80978
           17121         79.4933         86.3950         18.3876         5.93266
           17122         78.1544         86.0477         21.2687         5.21756
           17123         79.0113         86.6722         20.4947         5.38518
           17124         77.6452         86.2767         23.5486         4.55591
           17125         78.5129         86.9220         22.7398         4.77238
           17126         77.1362         86.4738         25.9758         3.81948
           17127         78.0086         87.1409         25.1307         4.08926
           17128         76.6428         86.6352         28.5586         3.00263
           17129         77.5118         87.3250         27.6759         3.33049
           17130         76.1840         86.7567         31.3062         2.09945
           17131         77.0397         87.4701         30.3844         2.49048
           17132         75.7834         86.8335         34.2284         1.10370
           17133         76.6135         87.5718         33.2656         1.56333
           17134         75.4698         86.8604         37.3362     8.50393E-03
           17135         76.2594         87.6251         36.3299     542.929E-03
           17136         54.1252         60.0418         17.2568         4.57720
           17137         53.8873         59.9113         17.5953         4.43598
           17138         53.6987         59.7513         17.9256         4.58527
           17139         54.5626         60.3325         16.5861         4.56971
           17140         54.3199         60.2022         16.9252         4.42813
           17141         55.0099         60.6231         15.9140         4.56180
           17142         54.7628         60.4930         16.2540         4.42051
           17143         55.4661         60.9131         15.2413         4.55268
           17144         55.2150         60.7835         15.5823         4.41227
           17145         55.9301         61.2020         14.5688         4.54165
           17146         55.6756         61.0732         14.9106         4.40270
           17147         56.4009         61.4895         13.8974         4.52816
           17148         56.1435         61.3617         14.2399         4.39121
           17149         56.8772         61.7748         13.2282         4.51183
           17150         56.6176         61.6485         13.5710         4.37734
           17151         57.3578         62.0576         12.5622         4.49240
           17152         57.0968         61.9331         12.9049         4.36077
           17153         57.8415         62.3372         11.9006         4.46975
           17154         57.5799         62.2150         12.2427         4.34131
           17155         58.3269         62.6131         11.2444         4.44390
           17156         58.0657         62.4937         11.5854         4.31890
           17157         58.8131         62.8848         10.5947         4.41501
           17158         58.5530         62.7687         10.9339         4.29361
           17159         59.2987         63.1519         9.95252         4.38331
           17160         59.0408         63.0396         10.2894         4.26560
           17161         59.7828         63.4140         9.31893         4.34917
           17162         59.5278         63.3060         9.65275         4.23517
           17163         60.2643         63.6709         8.69481         4.31302
           17164         60.0133         63.5677         9.02489         4.20265
           17165         60.7424         63.9223         8.08100         4.27537
           17166         60.4962         63.8242         8.40668         4.16850
           17167         61.2164         64.1680         7.47825         4.23678
           17168         60.9757         64.0756         7.79887         4.13320
           17169         61.6855         64.4080         6.88721         4.19783
           17170         61.4511         64.3215         7.20215         4.09729
           17171         62.1492         64.6423         6.30844         4.15916
           17172         61.9219         64.5621         6.61711         4.06133
           17173         62.6071         64.8709         5.74242         4.12138
           17174         62.3875         64.7973         6.04427         4.02593
           17175         63.0589         65.0940         5.18950         4.08511
           17176         62.8475         65.0273         5.48404         3.99166
           17177         63.5042         65.3118         4.64998         4.05099
           17178         63.3017         65.2521         4.93675         3.95911
           17179         63.9431         65.5246         4.12406         4.01958
           17180         63.7497         65.4721         4.40268         3.92886
           17181         64.3755         65.7326         3.61188         3.99147
           17182         64.1917         65.6874         3.88199         3.90146
           17183         64.8013         65.9363         3.11350         3.96717
           17184         64.6274         65.8984         3.37480         3.87743
           17185         65.2208         66.1360         2.62893         3.94718
           17186         65.0571         66.1056         2.88117         3.85726
           17187         65.6342         66.3322         2.15811         3.93194
           17188         65.4807         66.3092         2.40110         3.84140
           17189         66.0417         66.5254         1.70097         3.92186
           17190         65.8986         66.5097         1.93455         3.83027
           17191         66.4435         66.7159         1.25738         3.91729
           17192         66.3110         66.7076         1.48143         3.82424
           17193         66.8401         66.9044     827.191E-03         3.91854
           17194         66.7181         66.9033         1.04163         3.82362
           17195         67.2319         67.0913     410.242E-03         3.92589
           17196         67.1204         67.0974     615.023E-03         3.82870
           17197         67.6191         67.2772     6.35382E-03         3.93954
           17198         67.5181         67.2902     201.453E-03         3.83973
           17199         68.0023         67.4625    -384.658E-03         3.95968
           17200         67.9117         67.4825    -199.238E-03         3.85690
           17201         68.3819         67.6477    -762.978E-03         3.98644
           17202         68.3015         67.6745    -587.212E-03         3.88036
           17203         68.7583         67.8335        -1.12878         4.01992
           17204         68.6880         67.8669    -962.629E-03         3.91024
           17205         69.1319         68.0202        -1.48223         4.06017
           17206         69.0717         68.0602        -1.32564         3.94661
           17207         69.5033         68.2085        -1.82347         4.10721
           17208         69.4529         68.2548        -1.67638         3.98951
           17209         69.8727         68.3987        -2.15263         4.16104
           17210         69.8320         68.4513        -2.01497         4.03896
           17211         70.2407         68.5914        -2.46982         4.22160
           17212         70.2094         68.6500        -2.34151         4.09493
           17213         70.6075         68.7869        -2.77510         4.28882
           17214         70.5856         68.8516        -2.65607         4.15736
           17215         70.9736         68.9859        -3.06852         4.36260
           17216         70.9608         69.0564        -2.95870         4.22618
           17217         71.3393         69.1886        -3.35009         4.44280
           17218         71.3355         69.2648        -3.24941         4.30128
           17219         71.7048         69.3956        -3.61976         4.52927
           17220         71.7099         69.4774        -3.52816         4.38251
           17221         72.0706         69.6071        -3.87747         4.62183
           17222         72.0843         69.6945        -3.79489         4.46972
           17223         72.4367         69.8236        -4.12310         4.72027
           17224         72.4589         69.9164        -4.04950         4.56274
           17225         72.8033         70.0455        -4.35648         4.82438
           17226         72.8340         70.1437        -4.29184         4.66134
           17227         73.1707         70.2730        -4.57741         4.93390
           17228         73.2096         70.3765        -4.52171         4.76531
           17229         73.5388         70.5065        -4.78562         5.04857
           17230         73.5860         70.6153        -4.73885         4.87441
           17231         73.9078         70.7464        -4.98080         5.16811
           17232         73.9631         70.8604        -4.94298         4.98836
           17233         74.2776         70.9928        -5.16257         5.29220
           17234         74.3411         71.1121        -5.13373         5.10688
           17235         74.6482         71.2461        -5.33051         5.42053
           17236         74.7197         71.3706        -5.31070         5.22967
           17237         75.0194         71.5065        -5.48413         5.55276
           17238         75.0990         71.6362        -5.47342         5.35641
           17239         75.3910         71.7742        -5.62287         5.68851
           17240         75.4788         71.9091        -5.62137         5.48674
           17241         75.7629         72.0494        -5.74614         5.82741
           17242         75.8589         72.1895        -5.75395         5.62032
           17243         76.1346         72.3322        -5.85324         5.96906
           17244         76.2390         72.4777        -5.87050         5.75676
           17245         76.5058         72.6229        -5.94343         6.11303
           17246         76.6187         72.7737        -5.97031         5.89566
           17247         76.8761         72.9214        -6.01589         6.25887
           17248         76.9976         73.0778        -6.05258         6.03661
           17249         77.2449         73.2281        -6.06974         6.40614
           17250         77.3752         73.3899        -6.11644         6.17915
           17251         77.6117         73.5427        -6.10401         6.55433
           17252         77.7510         73.7103        -6.16096         6.32284
           17253         77.9758         73.8656        -6.11765         6.70294
           17254         78.1244         74.0389        -6.18512         6.46718
           17255         78.3363         74.1965        -6.10956         6.85143
           17256         78.4946         74.3757        -6.18784         6.61167
           17257         78.6926         74.5356        -6.07851         6.99924
           17258         78.8609         74.7209        -6.16792         6.75576
           17259         79.0438         74.8827        -6.02324         7.14578
           17260         79.2224         75.0742        -6.12413         6.89891
           17261         79.3887         75.2377        -5.94236         7.29043
           17262         79.5782         75.4357        -6.05511         7.04053
           17263         79.7265         75.6006        -5.83441         7.43255
           17264         79.9273         75.8053        -5.95942         7.17999
           17265         80.0559         75.9712        -5.69785         7.57144
           17266         80.2685         76.1827        -5.83556         7.31666
           17267         80.3758         76.3493        -5.53101         7.70640
           17268         80.6007         76.5679        -5.68189         7.44984
           17269         80.6848         76.7346        -5.33217         7.83667
           17270         80.9227         76.9605        -5.49670         7.57883
           17271         80.9816         77.1269        -5.09946         7.96144
           17272         81.2331         77.3604        -5.27817         7.70286
           17273         81.2649         77.5259        -4.83096         8.07989
           17274         81.5306         77.7673        -5.02440         7.82115
           17275         81.5329         77.9311        -4.52459         8.19112
           17276         81.8136         78.1807        -4.73336         7.93284
           17277         81.7843         78.3422        -4.17821         8.29420
           17278         82.0807         78.6003        -4.40290         8.03706
           17279         82.0173         78.7588        -3.78953         8.38813
           17280         82.3302         79.0257        -4.03079         8.13285
           17281         82.2303         79.1802        -3.35616         8.47185
           17282         82.5605         79.4563        -3.61467         8.21922
           17283         82.4216         79.6060        -2.87560         8.54426
           17284         82.7699         79.8916        -3.15204         8.29512
           17285         82.5893         80.0356        -2.34521         8.60415
           17286         82.9565         80.3311        -2.64030         8.35940
           17287         82.7316         80.4682        -1.76221         8.65026
           17288         83.1187         80.7740        -2.07671         8.41087
           17289         82.8467         80.9031        -1.12371         8.68123
           17290         83.2545         81.2196        -1.45838         8.44825
           17291         82.9328         81.3395    -426.660E-03         8.69562
           17292         83.3622         81.6672    -782.308E-03         8.47018
           17293         82.9880         81.7766     332.136E-03         8.69186
           17294         83.4399         82.1158    -45.3112E-03         8.47517
           17295         83.0106         82.2134         1.15602         8.66831
           17296         83.4857         82.5646     755.937E-03         8.46168
           17297         82.9988         82.6488         2.04851         8.62318
           17298         83.4980         83.0125         1.62492         8.42801
           17299         82.9509         83.0818         3.01330         8.55455
           17300         83.4750         83.4584         2.56532         8.37235
           17301         82.8656         83.5111         4.05428         8.46036
           17302         83.4152         83.9012         3.58099         8.29278
           17303         82.7413         83.9355         5.17551         8.33840
           17304         83.3170         84.3395         4.67599         8.18720
           17305         82.5771         84.3534         6.38132         8.18628
           17306         83.1794         84.7719         5.85461         8.05337
           17307         82.3721         84.7634         7.67621         8.00145
           17308         83.0013         85.1969         7.12132         7.88888
           17309         82.1260         85.1638         9.06497         7.78114
           17310         82.7820         85.6128         8.48090         7.69113
           17311         81.8386         85.5526         10.5527         7.52239
           17312         82.5215         86.0178         9.93837         7.45735
           17313         81.5109         85.9281         12.1447         7.22201
           17314         82.2200         86.4100         11.4990         7.18453
           17315         81.1442         86.2878         13.8466         6.87659
           17316         81.8787         86.7871         13.1685         6.86946
           17317         80.7410         86.6296         15.6645         6.48246
           17318         81.4995         87.1469         14.9528         6.50871
           17319         80.3049         86.9507         17.6048         6.03571
           17320         81.0854         87.4868         16.8583         6.09859
           17321         79.8411         87.2483         19.6744         5.53215
           17322         80.6408         87.8040         18.8916         5.63519
           17323         79.3565         87.5194         21.8804         4.96735
           17324         80.1717         88.0954         21.0600         5.11432
           17325         78.8603         87.7605         24.2306         4.33657
           17326         79.6862         88.3578         23.3711         4.53153
           17327         78.3644         87.9679         26.7333         3.63482
           17328         79.1948         88.5875         25.8331         3.88212
           17329         77.8840         88.1376         29.3973         2.85680
           17330         78.7109         88.7805         28.4546         3.16112
           17331         77.4380         88.2651         32.2319         1.99697
           17332         78.2516         88.9326         31.2449         2.36329
           17333         77.0499         88.3457         35.2474         1.04953
           17334         77.8381         89.0390         34.2138         1.48314
           17335         76.7484         88.3739         38.4548     8.03681E-03
           17336         77.4964         89.0948         37.3718     514.968E-03
           17337         54.0808         60.0722         17.2645         4.28629
           17338         53.8448         59.9419         17.6036         4.14487
           17339         53.6527         59.7810         17.9344         4.29460
           17340         54.5194         60.3633         16.5936         4.27881
           17341         54.2789         60.2334         16.9328         4.13697
           17342         54.9677         60.6543         15.9221         4.27126
           17343         54.7230         60.5247         16.2617         4.12956
           17344         55.4248         60.9448         15.2508         4.26288
           17345         55.1763         60.8156         15.5907         4.12187
           17346         55.8898         61.2343         14.5803         4.25305
           17347         55.6379         61.1059         14.9205         4.11324
           17348         56.3617         61.5224         13.9113         4.24126
           17349         56.1069         61.3950         14.2517         4.10311
           17350         56.8393         61.8087         13.2448         4.22714
           17351         56.5823         61.6827         13.5851         4.09107
           17352         57.3215         62.0927         12.5818         4.21042
           17353         57.0629         61.9684         12.9216         4.07680
           17354         57.8072         62.3740         11.9231         4.19099
           17355         57.5478         62.2517         12.2621         4.06011
           17356         58.2953         62.6520         11.2698         4.16883
           17357         58.0359         62.5322         11.6075         4.04093
           17358         58.7846         62.9263         10.6228         4.14406
           17359         58.5260         62.8095         10.9586         4.01929
           17360         59.2741         63.1966         9.98311         4.11687
           17361         59.0171         63.0833         10.3165         3.99533
           17362         59.7628         63.4625         9.35162         4.08755
           17363         59.5082         63.3530         9.68198         3.96926
           17364         60.2497         63.7237         8.72915         4.05648
           17365         59.9984         63.6185         9.05587         3.94139
           17366         60.7340         63.9801         8.11650         4.02410
           17367         60.4868         63.8796         8.43897         3.91209
           17368         61.2150         64.2315         7.51436         3.99088
           17369         60.9726         64.1360         7.83199         3.88179
           17370         61.6919         64.4778         6.92337         3.95736
           17371         61.4552         64.3877         7.23558         3.85096
           17372         62.1643         64.7190         6.34405         3.92407
           17373         61.9338         64.6346         6.65031         3.82009
           17374         62.6317         64.9551         5.77688         3.89157
           17375         62.4081         64.8767         6.07667         3.78972
           17376         63.0937         65.1863         5.22224         3.86044
           17377         62.8775         65.1142         5.51508         3.76035
           17378         63.5502         65.4128         4.68041         3.83121
           17379         63.3418         65.3471         4.96589         3.73253
           17380         64.0008         65.6348         4.15164         3.80443
           17381         63.8008         65.5756         4.42937         3.70678
           17382         64.4455         65.8526         3.63607         3.78061
           17383         64.2543         65.8001         3.90572         3.68358
           17384         64.8844         66.0665         3.13382         3.76025
           17385         64.7022         66.0207         3.39509         3.66343
           17386         65.3175         66.2769         2.64492         3.74378
           17387         65.1446         66.2379         2.89757         3.64677
           17388         65.7450         66.4842         2.16937         3.73164
           17389         65.5816         66.4520         2.41318         3.63402
           17390         66.1670         66.6888         1.70712         3.72420
           17391         66.0132         66.6633         1.94194         3.62556
           17392         66.5839         66.8912         1.25810         3.72179
           17393         66.4398         66.8724         1.48378         3.62175
           17394         66.9959         67.0918     822.196E-03         3.72471
           17395         66.8616         67.0797         1.03866         3.62288
           17396         67.4033         67.2912     399.294E-03         3.73323
           17397         67.2788         67.2856     606.467E-03         3.62924
           17398         67.8065         67.4897    -10.7437E-03         3.74755
           17399         67.6917         67.4907     187.098E-03         3.64104
           17400         68.2059         67.6880    -408.061E-03         3.76784
           17401         68.1008         67.6953    -219.567E-03         3.65849
           17402         68.6019         67.8866    -792.802E-03         3.79425
           17403         68.5064         67.9001    -613.650E-03         3.68173
           17404         68.9949         68.0858        -1.16510         3.82687
           17405         68.9089         68.1055    -995.276E-03         3.71089
           17406         69.3853         68.2863        -1.52509         3.86577
           17407         69.3087         68.3119        -1.36456         3.74604
           17408         69.7734         68.4884        -1.87289         3.91098
           17409         69.7060         68.5199        -1.72160         3.78724
           17410         70.1598         68.6928        -2.20858         3.96249
           17411         70.1014         68.7299        -2.06649         3.83451
           17412         70.5446         68.8998        -2.53223         4.02026
           17413         70.4953         68.9425        -2.39930         3.88782
           17414         70.9285         69.1099        -2.84391         4.08425
           17415         70.8878         69.1580        -2.72007         3.94714
           17416         71.3115         69.3235        -3.14361         4.15435
           17417         71.2795         69.3770        -3.02881         4.01241
           17418         71.6942         69.5412        -3.43131         4.23045
           17419         71.6706         69.5999        -3.32551         4.08351
           17420         72.0767         69.7632        -3.70697         4.31241
           17421         72.0615         69.8270        -3.61012         4.16034
           17422         72.4593         69.9901        -3.97048         4.40007
           17423         72.4523         70.0589        -3.88256         4.24275
           17424         72.8423         70.2222        -4.22171         4.49325
           17425         72.8433         70.2958        -4.14268         4.33058
           17426         73.2257         70.4598        -4.46046         4.59173
           17427         73.2346         70.5382        -4.39032         4.42363
           17428         73.6098         70.7033        -4.68652         4.69529
           17429         73.6265         70.7865        -4.62527         4.52170
           17430         73.9946         70.9530        -4.89958         4.80369
           17431         74.0191         71.0409        -4.84725         4.62457
           17432         74.3801         71.2093        -5.09933         4.91666
           17433         74.4123         71.3018        -5.05594         4.73199
           17434         74.7664         71.4724        -5.28538         5.03391
           17435         74.8062         71.5696        -5.25098         4.84369
           17436         75.1533         71.7426        -5.45726         5.15515
           17437         75.2008         71.8443        -5.43193         4.95939
           17438         75.5407         72.0201        -5.61448         5.28005
           17439         75.5959         72.1264        -5.59832         5.07879
           17440         75.9285         72.3051        -5.75647         5.40827
           17441         75.9913         72.4161        -5.74958         5.20157
           17442         76.3164         72.5980        -5.88260         5.53945
           17443         76.3870         72.7136        -5.88512         5.32739
           17444         76.7040         72.8987        -5.99217         5.67322
           17445         76.7825         73.0190        -6.00426         5.45591
           17446         77.0910         73.2075        -6.08440         5.80918
           17447         77.1775         73.3325        -6.10626         5.58674
           17448         77.4770         73.5246        -6.15847         5.94691
           17449         77.5716         73.6543        -6.19030         5.71949
           17450         77.8614         73.8499        -6.21346         6.08598
           17451         77.9644         73.9845        -6.25549         5.85374
           17452         78.2436         74.1836        -6.24839         6.22592
           17453         78.3552         74.3232        -6.30089         5.98906
           17454         78.6229         74.5256        -6.26218         6.36626
           17455         78.7435         74.6703        -6.32544         6.12501
           17456         78.9987         74.8761        -6.25370         6.50649
           17457         79.1285         75.0260        -6.32804         6.26109
           17458         79.3701         75.2350        -6.22171         6.64608
           17459         79.5094         75.3902        -6.30749         6.39680
           17460         79.7362         75.6022        -6.16491         6.78446
           17461         79.8855         75.7629        -6.26249         6.53162
           17462         80.0961         75.9776        -6.08189         6.92107
           17463         80.2557         76.1441        -6.19168         6.66501
           17464         80.4486         76.3611        -5.97115         7.05528
           17465         80.6191         76.5335        -6.09361         6.79636
           17466         80.7927         76.7526        -5.83111         7.18646
           17467         80.9746         76.9310        -5.96669         6.92508
           17468         81.1271         77.1519        -5.66008         7.31391
           17469         81.3210         77.3366        -5.80930         7.05053
           17470         81.4507         77.5586        -5.45629         7.43694
           17471         81.6570         77.7499        -5.61968         7.17202
           17472         81.7619         77.9725        -5.21785         7.55477
           17473         81.9814         78.1706        -5.39596         7.28884
           17474         82.0595         78.3933        -4.94276         7.66663
           17475         82.2928         78.5986        -5.13621         7.40025
           17476         82.3418         78.8206        -4.62893         7.77166
           17477         82.5897         79.0333        -4.83833         7.50544
           17478         82.6074         79.2541        -4.27414         7.86898
           17479         82.8705         79.4744        -4.50016         7.60357
           17480         82.8546         79.6931        -3.87605         7.95764
           17481         83.1338         79.9215        -4.11939         7.69376
           17482         83.0816         80.1372        -3.43222         8.03665
           17483         83.3777         80.3740        -3.69360         7.77506
           17484         83.2869         80.5858        -2.94007         8.10494
           17485         83.6006         80.8313        -3.22024         7.84646
           17486         83.4685         81.0382        -2.39688         8.16137
           17487         83.8008         81.2929        -2.69664         7.90690
           17488         83.6248         81.4938        -1.79981         8.20474
           17489         83.9765         81.7580        -2.11998         7.95523
           17490         83.7538         81.9517        -1.14587         8.23376
           17491         84.1257         82.2259        -1.48729         7.99025
           17492         83.8536         82.4112    -431.923E-03         8.24706
           17493         84.2468         82.6958    -795.479E-03         8.01064
           17494         83.9226         82.8713     345.339E-03         8.24315
           17495         84.3378         83.1667    -41.2671E-03         8.01504
           17496         83.9589         83.3310         1.18937         8.22046
           17497         84.3969         83.6378     778.779E-03         8.00193
           17498         83.9607         83.7893         2.10381         8.17729
           17499         84.4224         84.1078         1.66826         7.96974
           17500         83.9264         84.2449         3.09249         8.11181
           17501         84.4126         84.5757         2.63098         7.91674
           17502         83.8545         84.6965         4.15943         8.02208
           17503         84.3658         85.0402         3.67093         7.84110
           17504         83.7436         85.1429         5.30887         7.90598
           17505         84.2807         85.5000         4.79231         7.74085
           17506         83.5927         85.5824         6.54529         7.76125
           17507         84.1559         85.9534         5.99957         7.61385
           17508         83.4009         86.0135         7.87339         7.58547
           17509         83.9906         86.3990         7.29737         7.45784
           17510         83.1678         86.4343         9.29814         7.37602
           17511         83.7841         86.8350         8.69064         7.27035
           17512         82.8935         86.8430         10.8248         7.13009
           17513         83.5362         87.2595         10.1846         7.04876
           17514         82.5787         87.2373         12.4590         6.84469
           17515         83.2473         87.6704         11.7848         6.79025
           17516         82.2248         87.6151         14.2066         6.51657
           17517         82.9185         88.0654         13.4970         6.49179
           17518         81.8344         87.9738         16.0738         6.14230
           17519         82.5518         88.4420         15.3275         6.15016
           17520         81.4110         88.3107         18.0673         5.71819
           17521         82.1501         88.7977         17.2828         5.76189
           17522         80.9599         88.6227         20.1943         5.24032
           17523         81.7180         89.1294         19.3700         5.32332
           17524         80.4880         88.9067         22.4621         4.70452
           17525         81.2613         89.4340         21.5963         4.83052
           17526         80.0045         89.1592         24.8789         4.10636
           17527         80.7883         89.7081         23.9698         4.27935
           17528         79.5213         89.3762         27.4531         3.44118
           17529         80.3094         89.9478         26.4988         3.66541
           17530         79.0536         89.5535         30.1938         2.70403
           17531         79.8380         90.1492         29.1923         2.98407
           17532         78.6203         89.6867         33.1108         1.88974
           17533         79.3913         90.3076         32.0598         2.23047
           17534         78.2448         89.7708         36.2142     992.902E-03
           17535         78.9903         90.4185         35.1113         1.39948
           17536         77.9554         89.8002         39.5157     7.56021E-03
           17537         78.6609         90.4765         38.3576     485.803E-03
           17538         54.0417         60.1034         17.2722         3.99479
           17539         53.8074         59.9730         17.6121         3.85306
           17540         53.6119         59.8115         17.9435         4.00318
           17541         54.4816         60.3951         16.6008         3.98742
           17542         54.2430         60.2651         16.9402         3.84524
           17543         54.9311         60.6866         15.9297         3.98024
           17544         54.6885         60.5570         16.2689         3.83810
           17545         55.3893         60.9776         15.2594         3.97257
           17546         55.1429         60.8485         15.5984         3.83095
           17547         55.8554         61.2677         14.5903         3.96383
           17548         55.6056         61.1394         14.9292         3.82317
           17549         56.3284         61.5566         13.9233         3.95354
           17550         56.0758         61.4292         14.2620         3.81427
           17551         56.8073         61.8438         13.2591         3.94136
           17552         56.5524         61.7177         13.5973         3.80384
           17553         57.2911         62.1291         12.5985         3.92702
           17554         57.0345         62.0045         12.9360         3.79159
           17555         57.7788         62.4119         11.9423         3.91041
           17556         57.5212         62.2892         12.2787         3.77733
           17557         58.2693         62.6918         11.2915         3.89149
           17558         58.0114         62.5715         11.6264         3.76098
           17559         58.7616         62.9686         10.6469         3.87033
           17560         58.5041         62.8509         10.9797         3.74254
           17561         59.2546         63.2418         10.0093         3.84710
           17562         58.9983         63.1272         10.3397         3.72211
           17563         59.7475         63.5112         9.37964         3.82204
           17564         59.4931         63.4000         9.70698         3.69988
           17565         60.2393         63.7765         8.75862         3.79545
           17566         59.9877         63.6691         9.08238         3.67610
           17567         60.7293         64.0374         8.14697         3.76773
           17568         60.4811         63.9343         8.46662         3.65109
           17569         61.2166         64.2940         7.54538         3.73927
           17570         60.9726         64.1954         7.86036         3.62521
           17571         61.7007         64.5460         6.95441         3.71056
           17572         61.4616         64.4523         7.26421         3.59887
           17573         62.1810         64.7936         6.37461         3.68205
           17574         61.9474         64.7050         6.67872         3.57252
           17575         62.6571         65.0366         5.80643         3.65426
           17576         62.4296         64.9535         6.10437         3.54660
           17577         63.1285         65.2753         5.25023         3.62769
           17578         62.9076         65.1978         5.54157         3.52159
           17579         63.5949         65.5098         4.70634         3.60282
           17580         63.3812         65.4381         4.99067         3.49797
           17581         64.0563         65.7403         4.17499         3.58015
           17582         63.8501         65.6745         4.45196         3.47620
           17583         64.5124         65.9671         3.65638         3.56016
           17584         64.3141         65.9073         3.92565         3.45673
           17585         64.9632         66.1904         3.15062         3.54327
           17586         64.7732         66.1368         3.41191         3.44000
           17587         65.4088         66.4107         2.65780         3.52991
           17588         65.2273         66.3632         2.91086         3.42641
           17589         65.8493         66.6282         2.17794         3.52047
           17590         65.6765         66.5870         2.42256         3.41637
           17591         66.2848         66.8435         1.71104         3.51530
           17592         66.1208         66.8084         1.94705         3.41022
           17593         66.7155         67.0568         1.25706         3.51472
           17594         66.5605         67.0279         1.48432         3.40828
           17595         67.1418         67.2688     815.930E-03         3.51901
           17596         66.9957         67.2459         1.03433         3.41084
           17597         67.5637         67.4797     387.569E-03         3.52840
           17598         67.4267         67.4628     597.032E-03         3.41817
           17599         67.9818         67.6902    -28.1205E-03         3.54311
           17600         67.8539         67.6792     172.350E-03         3.43047
           17601         68.3963         67.9006    -431.243E-03         3.56331
           17602         68.2773         67.8955    -239.797E-03         3.44793
           17603         68.8076         68.1115    -821.907E-03         3.58913
           17604         68.6976         68.1121    -639.498E-03         3.47071
           17605         69.2160         68.3234        -1.20021         3.62067
           17606         69.1148         68.3295        -1.02684         3.49891
           17607         69.6220         68.5367        -1.56626         3.65800
           17608         69.5295         68.5482        -1.40191         3.53263
           17609         70.0258         68.7519        -1.92012         3.70116
           17610         69.9420         68.7687        -1.76477         3.57192
           17611         70.4280         68.9695        -2.26187         3.75015
           17612         70.3526         68.9915        -2.11549         3.61680
           17613         70.8287         69.1899        -2.59154         3.80494
           17614         70.7617         69.2169        -2.45410         3.66726
           17615         71.2284         69.4137        -2.90915         3.86549
           17616         71.1696         69.4456        -2.78062         3.72328
           17617         71.6274         69.6412        -3.21470         3.93171
           17618         71.5766         69.6779        -3.09504         3.78479
           17619         72.0259         69.8729        -3.50813         4.00352
           17620         71.9831         69.9142        -3.39732         3.85171
           17621         72.4243         70.1092        -3.78937         4.08077
           17622         72.3893         70.1551        -3.68738         3.92395
           17623         72.8228         70.3505        -4.05830         4.16334
           17624         72.7954         70.4008        -3.96512         4.00136
           17625         73.2216         70.5971        -4.31476         4.25104
           17626         73.2017         70.6518        -4.23038         4.08380
           17627         73.6207         70.8496        -4.55854         4.34369
           17628         73.6083         70.9085        -4.48297         4.17109
           17629         74.0205         71.1081        -4.78939         4.44108
           17630         74.0154         71.1712        -4.72266         4.26306
           17631         74.4209         71.3731        -5.00701         4.54298
           17632         74.4230         71.4402        -4.94915         4.35949
           17633         74.8219         71.6448        -5.21104         4.64916
           17634         74.8313         71.7160        -5.16211         4.46016
           17635         75.2236         71.9236        -5.40109         4.75934
           17636         75.2401         71.9988        -5.36115         4.56481
           17637         75.6258         72.2096        -5.57668         4.87325
           17638         75.6496         72.2889        -5.54583         4.67320
           17639         76.0285         72.5033        -5.73728         4.99058
           17640         76.0594         72.5865        -5.71564         4.78504
           17641         76.4314         72.8047        -5.88232         5.11102
           17642         76.4695         72.8919        -5.87002         4.90003
           17643         76.8342         73.1141        -6.01114         5.23424
           17644         76.8797         73.2053        -6.00833         5.01787
           17645         77.2368         73.4317        -6.12302         5.35988
           17646         77.2897         73.5269        -6.12989         5.13821
           17647         77.6386         73.7576        -6.21718         5.48758
           17648         77.6990         73.8568        -6.23394         5.26072
           17649         78.0392         74.0920        -6.29276         5.61693
           17650         78.1074         74.1953        -6.31964         5.38502
           17651         78.4381         74.4349        -6.34882         5.74754
           17652         78.5143         74.5424        -6.38608         5.51073
           17653         78.8348         74.7864        -6.38437         5.87897
           17654         78.9191         74.8982        -6.43230         5.63744
           17655         79.2285         75.1466        -6.39830         6.01077
           17656         79.3212         75.2627        -6.45722         5.76473
           17657         79.6185         75.5155        -6.38946         6.14246
           17658         79.7200         75.6361        -6.45972         5.89215
           17659         80.0040         75.8929        -6.35659         6.27356
           17660         80.1147         76.0182        -6.43856         6.01922
           17661         80.3841         76.2790        -6.29835         6.40353
           17662         80.5043         76.4090        -6.39244         6.14547
           17663         80.7578         76.6736        -6.21330         6.53184
           17664         80.8880         76.8085        -6.31996         6.27036
           17665         81.1242         77.0765        -6.09994         6.65789
           17666         81.2647         77.2165        -6.21963         6.39336
           17667         81.4820         77.4876        -5.95663         6.78109
           17668         81.6335         77.6330        -6.08986         6.51390
           17669         81.8301         77.9066        -5.78165         6.90080
           17670         81.9931         78.0576        -5.92897         6.63136
           17671         82.1672         78.3334        -5.57321         7.01635
           17672         82.3423         78.4902        -5.73518         6.74512
           17673         82.4919         78.7677        -5.32935         7.12702
           17674         82.6797         78.9305        -5.50659         6.85451
           17675         82.8029         79.2090        -5.04806         7.23206
           17676         83.0041         79.3782        -5.24120         6.95883
           17677         83.0985         79.6571        -4.72718         7.33069
           17678         83.3138         79.8328        -4.93691         7.05731
           17679         83.3774         80.1114        -4.36446         7.42207
           17680         83.6075         80.2941        -4.59147         7.14918
           17681         83.6378         80.5715        -3.95749         7.50530
           17682         83.8835         80.7614        -4.20255         7.23360
           17683         83.8780         81.0368        -3.50378         7.57944
           17684         84.1402         81.2343        -3.76766         7.30967
           17685         84.0964         81.5068        -3.00068         7.64348
           17686         84.3758         81.7123        -3.28421         7.37645
           17687         84.2911         81.9807        -2.44540         7.69636
           17688         84.5886         82.1945        -2.74943         7.43294
           17689         84.4603         82.4578        -1.83503         7.73694
           17690         84.7769         82.6805        -2.16045         7.47806
           17691         84.6023         82.9373        -1.16650         7.76398
           17692         84.9386         83.1692        -1.51423         7.51067
           17693         84.7151         83.4184    -436.568E-03         7.77620
           17694         85.0722         83.6599    -807.580E-03         7.52953
           17695         84.7969         83.9000     358.163E-03         7.77219
           17696         85.1756         84.1517    -37.1314E-03         7.53336
           17697         84.8460         84.3812         1.22126         7.75047
           17698         85.2471         84.6435     800.648E-03         7.52073
           17699         84.8605         84.8608         2.15647         7.70942
           17700         85.2850         85.1342         1.70947         7.49014
           17701         84.8389         85.3375         3.16775         7.64733
           17702         85.2874         85.6226         2.69325         7.44000
           17703         84.7796         85.8101         4.25927         7.56234
           17704         85.2528         86.1074         3.75611         7.36855
           17705         84.6813         86.2770         5.43542         7.45247
           17706         85.1798         86.5871         4.90239         7.27395
           17707         84.5429         86.7367         6.70082         7.31558
           17708         85.0672         87.0602         6.13668         7.15419
           17709         84.3635         87.1874         8.06034         7.14939
           17710         84.9139         87.5250         7.46380         7.00713
           17711         84.1427         87.6273         9.51915         6.95144
           17712         84.7193         87.9797         8.88886         6.83048
           17713         83.8806         88.0544         11.0827         6.71909
           17714         84.4833         88.4222         10.4173         6.62176
           17715         83.5780         88.4664         12.7568         6.44950
           17716         84.2063         88.8504         12.0547         6.37834
           17717         83.2363         88.8609         14.5474         6.13967
           17718         83.8893         89.2620         13.8072         6.09738
           17719         82.8580         89.2354         16.4613         5.78636
           17720         83.5343         89.6543         15.6812         5.77586
           17721         82.4467         89.5869         18.5050         5.38611
           17722         83.1445         90.0246         17.6835         5.41057
           17723         82.0078         89.9123         20.6861         4.93528
           17724         82.7241         90.3698         19.8212         4.99807
           17725         81.5480         90.2083         23.0123         4.42997
           17726         82.2793         90.6866         22.1021         4.53473
           17727         81.0768         90.4713         25.4917         3.86606
           17728         81.8183         90.9715         24.5342         4.01668
           17729         80.6059         90.6971         28.1333         3.23920
           17730         81.3514         91.2205         27.1262         3.43985
           17731         80.1506         90.8816         30.9463         2.54481
           17732         80.8922         91.4296         29.8873         2.79993
           17733         79.7297         91.0200         33.9405         1.77809
           17734         80.4577         91.5940         32.8271         2.09243
           17735         79.3665         91.1073         37.1266     934.029E-03
           17736         80.0689         91.7089         35.9559         1.31262
           17737         79.0892         91.1378         40.5163     7.07912E-03
           17738         79.7517         91.7689         39.2849     455.596E-03
           17739         54.0073         60.1348         17.2799         3.70263
           17740         53.7745         60.0040         17.6204         3.56050
           17741         53.5759         59.8422         17.9526         3.71095
           17742         54.4488         60.4272         16.6078         3.69546
           17743         54.2117         60.2968         16.9475         3.55286
           17744         54.8995         60.7192         15.9368         3.68869
           17745         54.6585         60.5893         16.2757         3.54606
           17746         55.3589         61.0107         15.2671         3.68169
           17747         55.1143         60.8814         15.6054         3.53944
           17748         55.8261         61.3015         14.5992         3.67393
           17749         55.5782         61.1729         14.9370         3.53246
           17750         56.3003         61.5911         13.9337         3.66498
           17751         56.0495         61.4634         14.2710         3.52465
           17752         56.7805         61.8794         13.2714         3.65450
           17753         56.5273         61.7528         13.6078         3.51565
           17754         57.2659         62.1658         12.6128         3.64225
           17755         57.0109         62.0407         12.9482         3.50517
           17756         57.7555         62.4501         11.9587         3.62811
           17757         57.4993         62.3267         12.2928         3.49304
           17758         58.2482         62.7320         11.3100         3.61202
           17759         57.9914         62.6106         11.6424         3.47915
           17760         58.7432         63.0110         10.6674         3.59403
           17761         58.4866         62.8920         10.9977         3.46352
           17762         59.2395         63.2869         10.0317         3.57427
           17763         58.9837         63.1707         10.3594         3.44619
           17764         59.7362         63.5595         9.40356         3.55294
           17765         59.4819         63.4464         9.72825         3.42733
           17766         60.2325         63.8284         8.78378         3.53030
           17767         59.9804         63.7188         9.10495         3.40714
           17768         60.7276         64.0936         8.17301         3.50668
           17769         60.4784         63.9877         8.49017         3.38589
           17770         61.2207         64.3549         7.57188         3.48243
           17771         60.9751         64.2531         7.88453         3.36390
           17772         61.7113         64.6122         6.98094         3.45796
           17773         61.4699         64.5147         7.28860         3.34153
           17774         62.1988         64.8655         6.40070         3.43370
           17775         61.9622         64.7727         6.70291         3.31915
           17776         62.6827         65.1149         5.83160         3.41007
           17777         62.4515         65.0269         6.12792         3.29717
           17778         63.1626         65.3604         5.27401         3.38753
           17779         62.9373         65.2775         5.56403         3.27601
           17780         63.6382         65.6022         4.72827         3.36653
           17781         63.4193         65.5246         5.01160         3.25609
           17782         64.1094         65.8405         4.19461         3.34750
           17783         63.8972         65.7682         4.47092         3.23783
           17784         64.5759         66.0755         3.67325         3.33086
           17785         64.3709         66.0087         3.94221         3.22163
           17786         65.0376         66.3076         3.16434         3.31702
           17787         64.8401         66.2463         3.42568         3.20789
           17788         65.4947         66.5369         2.66797         3.30637
           17789         65.3049         66.4812         2.92145         3.19698
           17790         65.9471         66.7639         2.18421         3.29926
           17791         65.7652         66.7138         2.42962         3.18926
           17792         66.3950         66.9890         1.71308         3.29601
           17793         66.2212         66.9445         1.95024         3.18506
           17794         66.8384         67.2125         1.25459         3.29693
           17795         66.6729         67.1736         1.48336         3.18466
           17796         67.2778         67.4349     808.692E-03         3.30226
           17797         67.1205         67.4015         1.02895         3.18834
           17798         67.7132         67.6566     375.344E-03         3.31225
           17799         67.5643         67.6286     587.004E-03         3.19634
           17800         68.1449         67.8781    -45.5161E-03         3.32709
           17801         68.0044         67.8555     157.477E-03         3.20887
           17802         68.5734         68.0998    -453.959E-03         3.34694
           17803         68.4411         68.0824    -259.678E-03         3.22610
           17804         68.9988         68.3222    -850.060E-03         3.37193
           17805         68.8748         68.3100    -664.520E-03         3.24816
           17806         69.4216         68.5458        -1.23389         3.40217
           17807         69.3058         68.5386        -1.05710         3.27519
           17808         69.8420         68.7711        -1.60550         3.43772
           17809         69.7343         68.7688        -1.43748         3.30726
           17810         70.2605         68.9985        -1.96497         3.47863
           17811         70.1608         69.0009        -1.80570         3.34443
           17812         70.6773         69.2284        -2.31230         3.52489
           17813         70.5854         69.2355        -2.16177         3.38672
           17814         71.0928         69.4615        -2.64753         3.57651
           17815         71.0087         69.4729        -2.50573         3.43414
           17816         71.5072         69.6980        -2.97065         3.63343
           17817         71.4308         69.7138        -2.83756         3.48666
           17818         71.9210         69.9384        -3.28161         3.69560
           17819         71.8520         69.9585        -3.15722         3.54423
           17820         72.3344         70.1832        -3.58036         3.76291
           17821         72.2728         70.2074        -3.46465         3.60679
           17822         72.7476         70.4328        -3.86678         3.83528
           17823         72.6932         70.4610        -3.75975         3.67424
           17824         73.1608         70.6876        -4.14074         3.91255
           17825         73.1135         70.7196        -4.04240         3.74647
           17826         73.5743         70.9479        -4.40206         3.99458
           17827         73.5340         70.9837        -4.31241         3.82333
           17828         73.9881         71.2142        -4.65051         4.08120
           17829         73.9548         71.2537        -4.56959         3.90468
           17830         74.4025         71.4868        -4.88582         4.17222
           17831         74.3760         71.5299        -4.81367         3.99035
           17832         74.8174         71.7661        -5.10768         4.26743
           17833         74.7977         71.8127        -5.04435         4.08015
           17834         75.2329         72.0522        -5.31571         4.36660
           17835         75.2199         72.1023        -5.26128         4.17386
           17836         75.6490         72.3457        -5.50949         4.46949
           17837         75.6427         72.3991        -5.46404         4.27127
           17838         76.0655         72.6466        -5.68853         4.57585
           17839         76.0659         72.7034        -5.65218         4.37214
           17840         76.4823         72.9554        -5.85229         4.68539
           17841         76.4894         73.0155        -5.82518         4.47620
           17842         76.8993         73.2721        -6.00017         4.79783
           17843         76.9132         73.3356        -5.98244         4.58319
           17844         77.3162         73.5970        -6.13150         4.91285
           17845         77.3369         73.6638        -6.12334         4.69281
           17846         77.7326         73.9304        -6.24555         5.03013
           17847         77.7603         74.0005        -6.24716         4.80476
           17848         78.1481         74.2723        -6.34151         5.14932
           17849         78.1829         74.3458        -6.35311         4.91872
           17850         78.5624         74.6229        -6.41849         5.27005
           17851         78.6045         74.6998        -6.44036         5.03434
           17852         78.9749         74.9822        -6.47556         5.39195
           17853         79.0245         75.0627        -6.50797         5.15127
           17854         79.3850         75.3504        -6.51169         5.51462
           17855         79.4423         75.4344        -6.55495         5.26914
           17856         79.7920         75.7275        -6.52576         5.63764
           17857         79.8574         75.8152        -6.58022         5.38753
           17858         80.1953         76.1135        -6.51658         5.76056
           17859         80.2689         76.2049        -6.58262         5.50605
           17860         80.5939         76.5084        -6.48288         5.88292
           17861         80.6763         76.6037        -6.56090         5.62425
           17862         80.9871         76.9121        -6.42329         6.00423
           17863         81.0785         77.0114        -6.51373         5.74168
           17864         81.3738         77.3245        -6.33636         6.12399
           17865         81.4747         77.4280        -6.43969         5.85786
           17866         81.7529         77.7455        -6.22053         6.24165
           17867         81.8639         77.8534        -6.33726         5.97227
           17868         82.1235         78.1749        -6.07416         6.35664
           17869         82.2449         78.2874        -6.20482         6.08439
           17870         82.4843         78.6125        -5.89549         6.46838
           17871         82.6168         78.7298        -6.04067         6.19366
           17872         82.8340         79.0581        -5.68268         6.57622
           17873         82.9781         79.1803        -5.84299         6.29948
           17874         83.1713         79.5113        -5.43376         6.67952
           17875         83.3277         79.6388        -5.60984         6.40123
           17876         83.4947         79.9718        -5.14665         6.77756
           17877         83.6640         80.1048        -5.33920         6.49825
           17878         83.8028         80.4391        -4.81916         6.86960
           17879         83.9858         80.5781        -5.02890         6.58985
           17880         84.0939         80.9130        -4.44899         6.95486
           17881         84.2914         81.0580        -4.67668         6.67528
           17882         84.3666         81.3927        -4.03370         7.03251
           17883         84.5792         81.5443        -4.28013         6.75377
           17884         84.6191         81.8778        -3.57071         7.10165
           17885         84.8477         82.0362        -3.83674         6.82448
           17886         84.8497         82.3677        -3.05733         7.16134
           17887         85.0951         82.5333        -3.34382         6.88653
           17888         85.0565         82.8616        -2.49070         7.21058
           17889         85.3196         83.0348        -2.79859         6.93897
           17890         85.2379         83.3588        -1.86784         7.24830
           17891         85.5195         83.5400        -2.19808         6.98082
           17892         85.3919         83.8584        -1.18559         7.27335
           17893         85.6929         84.0480        -1.53918         7.01098
           17894         85.5167         84.3596    -440.629E-03         7.28451
           17895         85.8380         84.5581    -818.627E-03         7.02832
           17896         85.6105         84.8613     370.527E-03         7.28046
           17897         85.9530         85.0693    -32.9646E-03         7.03161
           17898         85.6715         85.3625         1.25155         7.25981
           17899         86.0360         85.5803     821.434E-03         7.01954
           17900         85.6979         85.8619         2.20630         7.22105
           17901         86.0853         86.0902         1.74838         6.99071
           17902         85.6881         86.3583         3.23885         7.16255
           17903         86.0991         86.5976         2.75191         6.94360
           17904         85.6406         86.8503         4.35349         7.08259
           17905         86.0759         87.1012         3.83624         6.87659
           17906         85.5540         87.3363         5.55476         6.97931
           17907         86.0142         87.5994         5.00587         6.78795
           17908         85.4272         87.8147         6.84742         6.85070
           17909         85.9128         88.0907         6.26550         6.67581
           17910         85.2593         88.2837         8.23649         6.69462
           17911         85.7707         88.5733         7.62011         6.53818
           17912         85.0501         88.7413         9.72732         6.50877
           17913         85.5872         89.0453         9.07496         6.37291
           17914         84.7995         89.1855         11.3255         6.29069
           17915         85.3624         89.5045         10.6356         6.17770
           17916         84.5083         89.6138         13.0371         6.03774
           17917         85.0964         89.9488         12.3079         5.95009
           17918         84.1781         90.0238         14.8683         5.74710
           17919         84.7905         90.3756         14.0982         5.68746
           17920         83.8112         90.4128         16.8258         5.41577
           17921         84.4466         90.7824         16.0129         5.38701
           17922         83.4114         90.7779         18.9167         5.04054
           17923         84.0678         91.1661         18.0591         5.04573
           17924         82.9840         91.1157         21.1486         4.61802
           17925         83.6586         91.5238         20.2442         4.66048
           17926         82.5358         91.4228         23.5294         4.14458
           17927         83.2251         91.8518         22.5760         4.22786
           17928         82.0763         91.6954         26.0676         3.61643
           17929         82.7754         92.1467         25.0628         3.74433
           17930         81.6173         91.9295         28.7722         3.02953
           17931         82.3200         92.4043         27.7136         3.20611
           17932         81.1739         92.1205         31.6527         2.37966
           17933         81.8725         92.6204         30.5376         2.60925
           17934         80.7650         92.2637         34.7192         1.66237
           17935         81.4497         92.7902         33.5449         1.94959
           17936         80.4138         92.3540         37.9825     873.053E-03
           17937         81.0727         92.9089         36.7458         1.22278
           17938         80.1484         92.3855         41.4545     6.58662E-03
           17939         80.7672         92.9708         40.1517     424.316E-03
           17940         53.9773         60.1658         17.2874         3.40979
           17941         53.7456         60.0344         17.6286         3.26717
           17942         53.5441         59.8725         17.9616         3.41791
           17943         54.4202         60.4589         16.6145         3.40290
           17944         54.1845         60.3279         16.9544         3.25983
           17945         54.8723         60.7515         15.9433         3.39656
           17946         54.6327         60.6211         16.2821         3.25340
           17947         55.3329         61.0437         15.2740         3.39020
           17948         55.0897         60.9138         15.6118         3.24732
           17949         55.8012         61.3351         14.6070         3.38333
           17950         55.5548         61.2059         14.9439         3.24108
           17951         56.2766         61.6255         13.9427         3.37557
           17952         56.0273         61.4972         14.2787         3.23426
           17953         56.7582         61.9147         13.2818         3.36659
           17954         56.5065         61.7874         13.6168         3.22651
           17955         57.2451         62.2023         12.6249         3.35617
           17956         56.9914         62.0763         12.9586         3.21759
           17957         57.7364         62.4880         11.9727         3.34418
           17958         57.4814         62.3635         12.3048         3.20732
           17959         58.2313         62.7716         11.3257         3.33056
           17960         57.9755         62.6490         11.6560         3.19559
           17961         58.7288         63.0527         10.6848         3.31534
           17962         58.4728         62.9323         11.0129         3.18239
           17963         59.2281         63.3311         10.0506         3.29862
           17964         58.9726         63.2131         10.3761         3.16777
           17965         59.7283         63.6066         9.42387         3.28056
           17966         59.4739         63.4914         9.74626         3.15185
           17967         60.2287         63.8789         8.80516         3.26138
           17968         59.9760         63.7668         9.12407         3.13481
           17969         60.7284         64.1479         8.19514         3.24136
           17970         60.4781         64.0391         8.51012         3.11686
           17971         61.2268         64.4135         7.59440         3.22082
           17972         60.9795         64.3084         7.90501         3.09828
           17973         61.7232         64.6756         7.00346         3.20009
           17974         61.4795         64.5744         7.30926         3.07939
           17975         62.2171         64.9342         6.42282         3.17956
           17976         61.9777         64.8371         6.72337         3.06050
           17977         62.7081         65.1894         5.85290         3.15960
           17978         62.4734         65.0966         6.14780         3.04199
           17979         63.1958         65.4411         5.29408         3.14062
           17980         62.9663         65.3529         5.58295         3.02421
           17981         63.6797         65.6896         4.74667         3.12301
           17982         63.4559         65.6061         5.02915         3.00753
           17983         64.1597         65.9350         4.21095         3.10716
           17984         63.9419         65.8563         4.48670         2.99234
           17985         64.6357         66.1776         3.68712         3.09346
           17986         64.4243         66.1038         3.95585         2.97899
           17987         65.1074         66.4175         3.17536         3.08227
           17988         64.9027         66.3488         3.43681         2.96784
           17989         65.5749         66.6552         2.67580         3.07394
           17990         65.3772         66.5915         2.92972         2.95923
           17991         66.0382         66.8909         2.18852         3.06880
           17992         65.8477         66.8322         2.43471         2.95348
           17993         66.4973         67.1249         1.71358         3.06714
           17994         66.3142         67.0713         1.95186         2.95088
           17995         66.9525         67.3578         1.25099         3.06923
           17996         66.7769         67.3092         1.48122         2.95171
           17997         67.4038         67.5898     800.772E-03         3.07533
           17998         67.2358         67.5461         1.02282         2.95621
           17999         67.8515         67.8214     362.891E-03         3.08563
           18000         67.6912         67.7826     576.658E-03         2.96461
           18001         68.2959         68.0531    -62.6763E-03         3.10034
           18002         68.1432         68.0191     142.738E-03         2.97710
           18003         68.7372         68.2852    -475.971E-03         3.11960
           18004         68.5921         68.2559    -278.968E-03         2.99384
           18005         69.1756         68.5183    -877.037E-03         3.14354
           18006         69.0382         68.4936    -688.486E-03         3.01498
           18007         69.6116         68.7528        -1.26591         3.17226
           18008         69.4817         68.7325        -1.08584         3.04061
           18009         70.0454         68.9891        -1.64263         3.20582
           18010         69.9229         68.9732        -1.47106         3.07082
           18011         70.4773         69.2278        -2.00723         3.24427
           18012         70.3622         69.2160        -1.84416         3.10566
           18013         70.9076         69.4692        -2.35969         3.28763
           18014         70.7998         69.4615        -2.20514         3.14518
           18015         71.3367         69.7139        -2.70003         3.33588
           18016         71.2361         69.7101        -2.55399         3.18936
           18017         71.7649         69.9622        -3.02821         3.38899
           18018         71.6713         69.9622        -2.89068         3.23821
           18019         72.1923         70.2147        -3.34416         3.44691
           18020         72.1056         70.2184        -3.21515         3.29167
           18021         72.6194         70.4716        -3.64779         3.50957
           18022         72.5395         70.4789        -3.52730         3.34968
           18023         73.0463         70.7336        -3.93899         3.57685
           18024         72.9731         70.7443        -3.82704         3.41217
           18025         73.4732         71.0009        -4.21760         3.64865
           18026         73.4066         71.0149        -4.11420         3.47904
           18027         73.9003         71.2740        -4.48341         3.72483
           18028         73.8401         71.2912        -4.38859         3.55015
           18029         74.3278         71.5532        -4.73618         3.80524
           18030         74.2740         71.5734        -4.64999         3.62538
           18031         74.7556         71.8388        -4.97562         3.88969
           18032         74.7082         71.8621        -4.89813         3.70457
           18033         75.1840         72.1313        -5.20140         3.97801
           18034         75.1429         72.1575        -5.13267         3.78755
           18035         75.6129         72.4310        -5.41313         4.06998
           18036         75.5780         72.4600        -5.35325         3.87413
           18037         76.0423         72.7380        -5.61036         4.16539
           18038         76.0136         72.7699        -5.55945         3.96410
           18039         76.4721         73.0528        -5.79260         4.26400
           18040         76.4495         73.0874        -5.75078         4.05725
           18041         76.9021         73.3756        -5.95929         4.36555
           18042         76.8857         73.4128        -5.92672         4.15334
           18043         77.3321         73.7065        -6.10981         4.46977
           18044         77.3221         73.7465        -6.08666         4.25212
           18045         77.7619         74.0459        -6.24347         4.57637
           18046         77.7583         74.0885        -6.22994         4.35333
           18047         78.1911         74.3939        -6.35953         4.68507
           18048         78.1940         74.4392        -6.35584         4.45668
           18049         78.6194         74.7506        -6.45715         4.79553
           18050         78.6290         74.7986        -6.46356         4.56188
           18051         79.0464         75.1162        -6.53545         4.90742
           18052         79.0627         75.1670        -6.55224         4.66861
           18053         79.4714         75.4909        -6.59346         5.02040
           18054         79.4948         75.5444        -6.62093         4.77654
           18055         79.8939         75.8746        -6.63012         5.13408
           18056         79.9246         75.9310        -6.66862         4.88534
           18057         80.3133         76.2674        -6.64431         5.24808
           18058         80.3515         76.3267        -6.69421         4.99463
           18059         80.7288         76.6693        -6.63482         5.36200
           18060         80.7749         76.7317        -6.69651         5.10403
           18061         81.1396         77.0803        -6.60035         5.47540
           18062         81.1939         77.1459        -6.67427         5.21314
           18063         81.5448         77.5003        -6.53952         5.58783
           18064         81.6078         77.5692        -6.62614         5.32154
           18065         81.9434         77.9293        -6.45083         5.69881
           18066         82.0155         78.0016        -6.55065         5.42878
           18067         82.3345         78.3671        -6.33271         5.80785
           18068         82.4161         78.4430        -6.44627         5.53439
           18069         82.7169         78.8135        -6.18349         5.91443
           18070         82.8086         78.8932        -6.31137         5.63789
           18071         83.0894         79.2683        -6.00138         6.01798
           18072         83.1917         79.3521        -6.14420         5.73875
           18073         83.4508         79.7313        -5.78451         6.11793
           18074         83.5642         79.8192        -5.94290         5.83644
           18075         83.7996         80.2021        -5.53086         6.21366
           18076         83.9249         80.2945        -5.70553         5.93036
           18077         84.1346         80.6803        -5.23834         6.30451
           18078         84.2724         80.7775        -5.43000         6.01991
           18079         84.4541         81.1656        -4.90470         6.38979
           18080         84.6051         81.2679        -5.11414         6.10445
           18081         84.7567         81.6575        -4.52760         6.46878
           18082         84.9217         81.7651        -4.75561         6.18329
           18083         85.0408         82.1555        -4.10453         6.54070
           18084         85.2205         82.2688        -4.35199         6.25571
           18085         85.3046         82.6590        -3.63290         6.60472
           18086         85.4998         82.7783        -3.90069         6.32094
           18087         85.5464         83.1673        -3.10993         6.65996
           18088         85.7580         83.2931        -3.39899         6.37815
           18089         85.7645         83.6798        -2.53271         6.70549
           18090         85.9933         83.8123        -2.84404         6.42647
           18091         85.9570         84.1955        -1.89819         6.74031
           18092         86.2040         84.3353        -2.23281         6.46498
           18093         86.1221         84.7138        -1.20313         6.76335
           18094         86.3881         84.8613        -1.56213         6.49268
           18095         86.2581         85.2336    -444.148E-03         6.77347
           18096         86.5439         85.3892    -828.644E-03         6.50850
           18097         86.3630         85.7539     382.347E-03         6.76945
           18098         86.6695         85.9182    -28.8297E-03         6.51130
           18099         86.4350         86.2735         1.28011         6.74998
           18100         86.7631         86.4470     841.031E-03         6.49988
           18101         86.4724         86.7913         2.25311         6.71365
           18102         86.8229         86.9746         1.78484         6.47292
           18103         86.4735         87.3058         3.30553         6.65897
           18104         86.8473         87.4995         2.80674         6.42903
           18105         86.4369         87.8158         4.44177         6.58432
           18106         86.8345         88.0204         3.91107         6.36670
           18107         86.3611         88.3194         5.66650         6.48796
           18108         86.7833         88.5357         5.10241         6.28432
           18109         86.2451         88.8151         6.98462         6.36803
           18110         86.6923         89.0437         6.38563         6.18017
           18111         86.0881         89.3009         8.40130         6.22255
           18112         86.5605         89.5427         7.76581         6.05239
           18113         85.8895         89.7749         9.92202         6.04938
           18114         86.3874         90.0305         9.24837         5.89901
           18115         85.6497         90.2348         11.5526         5.84623
           18116         86.1728         90.5051         10.8390         5.71791
           18117         85.3692         90.6782         13.2991         5.61067
           18118         85.9172         90.9641         12.5438         5.50680
           18119         85.0496         91.1025         15.1681         5.34008
           18120         85.6215         91.4050         14.3690         5.26328
           18121         84.6934         91.5049         17.1664         5.03168
           18122         85.2880         91.8250         16.3216         4.98475
           18123         84.3044         91.8823         19.3013         4.68253
           18124         84.9196         92.2211         18.4086         4.66847
           18125         83.8878         92.2315         21.5804         4.28948
           18126         84.5208         92.5901         20.6376         4.31153
           18127         83.4507         92.5488         24.0121         3.84921
           18128         84.0979         92.9285         23.0166         3.91082
           18129         83.0023         92.8303         26.6049         3.35821
           18130         83.6588         93.2324         25.5542         3.46309
           18131         82.5545         93.0719         29.3681         2.81278
           18132         83.2143         93.4979         28.2595         2.96488
           18133         82.1225         93.2689         32.3114         2.20903
           18134         82.7778         93.7204         31.1418         2.41256
           18135         81.7251         93.4166         35.4450         1.54290
           18136         82.3662         93.8953         34.2115         1.80234
           18137         81.3855         93.5096         38.7799     810.135E-03
           18138         82.0005         94.0173         37.4791         1.13024
           18139         81.1315         93.5420         42.3283     6.08517E-03
           18140         81.7062         94.0810         40.9560     392.145E-03
           18141         53.9512         60.1960         17.2946         3.11624
           18142         53.7205         60.0636         17.6364         2.97308
           18143         53.5163         59.9019         17.9704         3.12404
           18144         54.3956         60.4898         16.6209         3.10970
           18145         54.1610         60.3579         16.9610         2.96611
           18146         54.8490         60.7830         15.9493         3.10382
           18147         54.6106         60.6517         16.2880         2.96012
           18148         55.3108         61.0758         15.2802         3.09807
           18149         55.0689         60.9451         15.6176         2.95457
           18150         55.7803         61.3679         14.6137         3.09203
           18151         55.5352         61.2378         14.9500         2.94902
           18152         56.2569         61.6590         13.9505         3.08532
           18153         56.0088         61.5298         14.2855         2.94309
           18154         56.7398         61.9491         13.2908         3.07766
           18155         56.4892         61.8208         13.6244         2.93647
           18156         57.2281         62.2378         12.6352         3.06884
           18157         56.9755         62.1107         12.9674         2.92891
           18158         57.7211         62.5249         11.9845         3.05873
           18159         57.4670         62.3991         12.3149         2.92025
           18160         58.2180         62.8101         11.3390         3.04726
           18161         57.9628         62.6860         11.6674         2.91040
           18162         58.7178         63.0931         10.6995         3.03446
           18163         58.4622         62.9710         11.0257         2.89933
           18164         59.2198         63.3738         10.0667         3.02039
           18165         58.9644         63.2539         10.3901         2.88707
           18166         59.7232         63.6520         9.44102         3.00518
           18167         59.4685         63.5344         9.76142         2.87372
           18168         60.2272         63.9274         8.82322         2.98903
           18169         59.9738         63.8126         9.14017         2.85941
           18170         60.7311         64.1998         8.21384         2.97217
           18171         60.4796         64.0880         8.52693         2.84435
           18172         61.2341         64.4693         7.61342         2.95487
           18173         60.9852         64.3608         7.92225         2.82876
           18174         61.7359         64.7358         7.02248         2.93742
           18175         61.4900         64.6307         7.32664         2.81291
           18176         62.2356         64.9992         6.44147         2.92016
           18177         61.9934         64.8978         6.74057         2.79708
           18178         62.7330         65.2595         5.87082         2.90342
           18179         62.4949         65.1620         6.16448         2.78160
           18180         63.2276         65.5169         5.31088         2.88755
           18181         62.9940         65.4235         5.59875         2.76677
           18182         63.7190         65.7714         4.76199         2.87291
           18183         63.4905         65.6822         5.04373         2.75293
           18184         64.2071         66.0233         4.22442         2.85983
           18185         63.9839         65.9384         4.49971         2.74040
           18186         64.6915         66.2727         3.69839         2.84867
           18187         64.4741         66.1922         3.96695         2.72951
           18188         65.1722         66.5199         3.18409         2.83975
           18189         64.9609         66.4438         3.44567         2.72058
           18190         65.6492         66.7651         2.68166         2.83339
           18191         65.4441         66.6935         2.93603         2.71391
           18192         66.1223         67.0087         2.19122         2.82988
           18193         65.9237         66.9416         2.43817         2.70979
           18194         66.5917         67.2510         1.71284         2.82948
           18195         66.3998         67.1884         1.95220         2.70848
           18196         67.0575         67.4924         1.24657         2.83246
           18197         66.8724         67.4342         1.47820         2.71024
           18198         67.5198         67.7332     792.447E-03         2.83903
           18199         67.3416         67.6795         1.01621         2.71528
           18200         67.9787         67.9739     350.471E-03         2.84940
           18201         67.8075         67.9245     566.259E-03         2.72382
           18202         68.4346         68.2149    -79.3560E-03         2.86373
           18203         68.2703         68.1697     128.378E-03         2.73602
           18204         68.8876         68.4566    -497.047E-03         2.88216
           18205         68.7302         68.4155    -297.434E-03         2.75204
           18206         69.3379         68.6994    -902.618E-03         2.90483
           18207         69.1875         68.6624    -711.177E-03         2.77202
           18208         69.7860         68.9439        -1.29608         2.93182
           18209         69.6425         68.9108        -1.11285         2.79604
           18210         70.2319         69.1904        -1.67744         2.96319
           18211         70.0953         69.1611        -1.50246         2.82419
           18212         70.6762         69.4394        -2.04671         2.99900
           18213         70.5463         69.4138        -1.87999         2.85653
           18214         71.1190         69.6914        -2.40386         3.03926
           18215         70.9957         69.6693        -2.24542         2.89308
           18216         71.5605         69.9468        -2.74885         3.08397
           18217         71.4439         69.9280        -2.59871         2.93386
           18218         72.0012         70.2060        -3.08165         3.13310
           18219         71.8910         70.1905        -2.93982         2.97886
           18220         72.4413         70.4695        -3.40216         3.18661
           18221         72.3374         70.4571        -3.26866         3.02804
           18222         72.8809         70.7377        -3.71027         3.24442
           18223         72.7833         70.7283        -3.58513         3.08134
           18224         73.3204         71.0111        -4.00585         3.30646
           18225         73.2289         71.0045        -3.88908         3.13871
           18226         73.7599         71.2900        -4.28871         3.37262
           18227         73.6744         71.2861        -4.18036         3.20005
           18228         74.1995         71.5747        -4.55864         3.44278
           18229         74.1199         71.5735        -4.45875         3.26525
           18230         74.6395         71.8658        -4.81537         3.51679
           18231         74.5658         71.8671        -4.72401         3.33419
           18232         75.0798         72.1636        -5.05860         3.59451
           18233         75.0119         72.1673        -4.97584         3.40673
           18234         75.5206         72.4683        -5.28798         3.67576
           18235         75.4584         72.4743        -5.21392         3.48272
           18236         75.9618         72.7803        -5.50311         3.76036
           18237         75.9053         72.7886        -5.43784         3.56199
           18238         76.4034         73.0999        -5.70352         3.84809
           18239         76.3527         73.1104        -5.64718         3.64435
           18240         76.8453         73.4275        -5.88871         3.93876
           18241         76.8003         73.4400        -5.84144         3.72960
           18242         77.2874         73.7632        -6.05809         4.03212
           18243         77.2481         73.7778        -6.02007         3.81754
           18244         77.7294         74.1072        -6.21103         4.12793
           18245         77.6960         74.1239        -6.18246         3.90793
           18246         78.1711         74.4599        -6.34684         4.22593
           18247         78.1436         74.4786        -6.32793         4.00053
           18248         78.6122         74.8214        -6.46475         4.32584
           18249         78.5906         74.8421        -6.45574         4.09509
           18250         79.0522         75.1918        -6.56391         4.42737
           18251         79.0369         75.2146        -6.56508         4.19134
           18252         79.4908         75.5714        -6.64341         4.53022
           18253         79.4818         75.5961        -6.65507         4.28898
           18254         79.9273         75.9600        -6.70228         4.63406
           18255         79.9249         75.9870        -6.72476         4.38773
           18256         80.3613         76.3580        -6.73944         4.73855
           18257         80.3657         76.3871        -6.77309         4.48726
           18258         80.7920         76.7653        -6.75375         4.84333
           18259         80.8035         76.7966        -6.79897         4.58724
           18260         81.2188         77.1819        -6.74397         4.94803
           18261         81.2377         77.2155        -6.80120         4.68733
           18262         81.6407         77.6078        -6.70879         5.05226
           18263         81.6674         77.6438        -6.77848         4.78715
           18264         82.0570         78.0429        -6.64680         5.15560
           18265         82.0919         78.0815        -6.72945         4.88632
           18266         82.4666         78.4871        -6.55649         5.25761
           18267         82.5101         78.5284        -6.65264         4.98443
           18268         82.8686         78.9404        -6.43626         5.35784
           18269         82.9212         78.9845        -6.54648         5.08105
           18270         83.2619         79.4025        -6.28441         5.45579
           18271         83.3241         79.4496        -6.40930         5.17574
           18272         83.6451         79.8731        -6.09913         5.55097
           18273         83.7175         79.9235        -6.23935         5.26801
           18274         84.0172         80.3521        -5.87850         5.64284
           18275         84.1003         80.4059        -6.03473         5.35738
           18276         84.3767         80.8390        -5.62050         5.73082
           18277         84.4712         80.8966        -5.79347         5.44330
           18278         84.7222         81.3336        -5.32297         5.81431
           18279         84.8288         81.3952        -5.51346         5.52522
           18280         85.0523         81.8355        -4.98364         5.89269
           18281         85.1716         81.9012        -5.19247         5.60255
           18282         85.3654         82.3440        -4.60012         5.96527
           18283         85.4982         82.4144        -4.82814         5.67466
           18284         85.6598         82.8588        -4.16988         6.03133
           18285         85.8070         82.9340        -4.41800         5.74088
           18286         85.9340         83.3792        -3.69024         6.09012
           18287         86.0963         83.4596        -3.95942         5.80051
           18288         86.1862         83.9044        -3.15839         6.14082
           18289         86.3644         83.9905        -3.44963         5.85279
           18290         86.4146         84.4339        -2.57138         6.18258
           18291         86.6096         84.5261        -2.88572         5.89692
           18292         86.6174         84.9668        -1.92606         6.21446
           18293         86.8301         85.0654        -2.26461         5.93205
           18294         86.7928         85.5022        -1.21914         6.23548
           18295         87.0240         85.6077        -1.58306         5.95726
           18296         86.9389         86.0391    -447.166E-03         6.24459
           18297         87.1895         86.1520    -837.656E-03         5.97157
           18298         87.0540         86.5764     393.539E-03         6.24065
           18299         87.3249         86.6973    -24.7904E-03         5.97393
           18300         87.1361         87.1130         1.30681         6.22247
           18301         87.4282         87.2424     859.332E-03         5.96324
           18302         87.1836         87.6477         2.29672         6.18874
           18303         87.4977         87.7861         1.81870         5.93828
           18304         87.1948         88.1789         3.36755         6.13807
           18305         87.5316         88.3270         2.85755         5.89778
           18306         87.1682         88.7053         4.52382         6.06898
           18307         87.5285         88.8638         3.98031         5.84035
           18308         87.1024         89.2251         5.77029         5.97986
           18309         87.4868         89.3947         5.19170         5.76451
           18310         86.9964         89.7366         7.11200         5.86900
           18311         87.4053         89.9180         6.49667         5.66869
           18312         86.8492         90.2379         8.55424         5.73458
           18313         87.2830         90.4318         7.90044         5.55118
           18314         86.6606         90.7268         10.1027         5.57462
           18315         87.1194         90.9342         9.40855         5.41017
           18316         86.4306         91.2011         11.7632         5.38702
           18317         86.9143         91.4228         11.0268         5.24372
           18318         86.1600         91.6582         13.5421         5.16954
           18319         86.6681         91.8952         12.7615         5.04975
           18320         85.8504         92.0956         15.4460         4.91979
           18321         86.3820         92.3489         14.6191         4.82605
           18322         85.5042         92.5103         17.4820         4.63522
           18323         86.0580         92.7809         16.6065         4.57025
           18324         85.1252         92.8991         19.6575         4.31312
           18325         85.6992         93.1883         18.7310         4.27986
           18326         84.7188         93.2586         21.9804         3.95063
           18327         85.3101         93.5676         21.0004         3.95222
           18328         84.2919         93.5852         24.4591         3.54470
           18329         84.8970         93.9154         23.4229         3.58450
           18330         83.8539         93.8748         27.1023         3.09214
           18331         84.4680         94.2276         26.0072         3.17375
           18332         83.4168         94.1232         29.9196         2.58956
           18333         84.0336         94.5002         28.7624         2.71681
           18334         82.9955         94.3258         32.9207         2.03342
           18335         83.6074         94.7286         31.6984         2.21040
           18336         82.6090         94.4774         36.1161         1.42001
           18337         83.2063         94.9079         34.8253         1.65108
           18338         82.2803         94.5729         39.5171     745.486E-03
           18339         82.8512         95.0330         38.1541         1.03524
           18340         82.0372         94.6061         43.1357     5.57838E-03
           18341         82.5676         95.0983         41.6962     359.146E-03
           18342         53.9286         60.2249         17.3014         2.82198
           18343         53.6987         60.0914         17.6438         2.67823
           18344         53.4920         59.9301         17.9788         2.82935
           18345         54.3745         60.5193         16.6268         2.81587
           18346         54.1408         60.3863         16.9672         2.67173
           18347         54.8292         60.8132         15.9548         2.81046
           18348         54.5918         60.6808         16.2935         2.66621
           18349         55.2921         61.1066         15.2857         2.80531
           18350         55.0513         60.9747         15.6228         2.66121
           18351         55.7628         61.3993         14.6196         2.80002
           18352         55.5187         61.2681         14.9553         2.65631
           18353         56.2406         61.6912         13.9571         2.79426
           18354         55.9935         61.5608         14.2912         2.65119
           18355         56.7247         61.9821         13.2983         2.78776
           18356         56.4751         61.8526         13.6309         2.64555
           18357         57.2144         62.2719         12.6439         2.78034
           18358         56.9626         62.1434         12.9748         2.63919
           18359         57.7090         62.5602         11.9943         2.77186
           18360         57.4555         62.4329         12.3234         2.63195
           18361         58.2076         62.8469         11.3501         2.76227
           18362         57.9529         62.7211         11.6770         2.62373
           18363         58.7096         63.1317         10.7119         2.75157
           18364         58.4542         63.0076         11.0363         2.61451
           18365         59.2140         63.4145         10.0801         2.73980
           18366         58.9585         63.2923         10.4018         2.60430
           18367         59.7202         63.6950         9.45541         2.72709
           18368         59.4652         63.5750         9.77409         2.59317
           18369         60.2275         63.9732         8.83838         2.71358
           18370         59.9734         63.8556         9.15363         2.58126
           18371         60.7351         64.2488         8.22953         2.69948
           18372         60.4825         64.1339         8.54099         2.56871
           18373         61.2424         64.5218         7.62939         2.68501
           18374         60.9918         64.4098         7.93667         2.55572
           18375         61.7488         64.7921         7.03842         2.67043
           18376         61.5008         64.6832         7.34116         2.54253
           18377         62.2538         65.0598         6.45708         2.65602
           18378         62.0089         64.9541         6.75492         2.52937
           18379         62.7569         65.3248         5.88576         2.64209
           18380         62.5155         65.2226         6.17836         2.51652
           18381         63.2577         65.5873         5.32484         2.62893
           18382         63.0203         65.4887         5.61186         2.50426
           18383         63.7559         65.8473         4.77464         2.61686
           18384         63.5229         65.7524         5.05575         2.49287
           18385         64.2511         66.1050         4.23542         2.60618
           18386         64.0228         66.0139         4.51034         2.48264
           18387         64.7432         66.3606         3.70743         2.59719
           18388         64.5200         66.2734         3.97589         2.47386
           18389         65.2320         66.6143         3.19086         2.59020
           18390         65.0142         66.5310         3.45262         2.46681
           18391         65.7174         66.8663         2.68588         2.58547
           18392         65.5053         66.7871         2.94071         2.46175
           18393         66.1995         67.1171         2.19262         2.58327
           18394         65.9931         67.0418         2.44033         2.45895
           18395         66.6781         67.3668         1.71117         2.58385
           18396         66.4778         67.2955         1.95158         2.45864
           18397         67.1535         67.6159         1.24161         2.58743
           18398         66.9592         67.5485         1.47458         2.46105
           18399         67.6256         67.8647     783.982E-03         2.59422
           18400         67.4376         67.8012         1.00938         2.46637
           18401         68.0947         68.1136     338.332E-03         2.60439
           18402         67.9130         68.0539     556.054E-03         2.47479
           18403         68.5609         68.3631    -95.3222E-03         2.61811
           18404         68.3855         68.3070     114.632E-03         2.48648
           18405         69.0245         68.6135    -516.967E-03         2.63550
           18406         68.8554         68.5610    -314.855E-03         2.50156
           18407         69.4857         68.8652    -926.595E-03         2.65669
           18408         69.3229         68.8162    -732.384E-03         2.52017
           18409         69.9447         69.1187        -1.32419         2.68175
           18410         69.7882         69.0732        -1.13793         2.54239
           18411         70.4017         69.3745        -1.70975         2.71075
           18412         70.2514         69.3322        -1.53148         2.56830
           18413         70.8572         69.6330        -2.08323         2.74373
           18414         70.7130         69.5938        -1.91299         2.59795
           18415         71.3112         69.8946        -2.44461         2.78072
           18416         71.1731         69.8583        -2.28242         2.63137
           18417         71.7642         70.1598        -2.79383         2.82172
           18418         71.6320         70.1263        -2.63972         2.66858
           18419         72.2163         70.4289        -3.13081         2.86670
           18420         72.0900         70.3982        -2.98481         2.70956
           18421         72.6678         70.7025        -3.45545         2.91563
           18422         72.5472         70.6744        -3.31760         2.75430
           18423         73.1189         70.9810        -3.76763         2.96845
           18424         73.0040         70.9553        -3.63795         2.80274
           18425         73.5698         71.2648        -4.06718         3.02509
           18426         73.4605         71.2413        -3.94572         2.85483
           18427         74.0207         71.5542        -4.35391         3.08545
           18428         73.9169         71.5329        -4.24072         2.91049
           18429         74.4718         71.8497        -4.62758         3.14942
           18430         74.3733         71.8304        -4.52273         2.96962
           18431         74.9231         72.1517        -4.88791         3.21689
           18432         74.8300         72.1343        -4.79148         3.03212
           18433         75.3748         72.4604        -5.13460         3.28770
           18434         75.2869         72.4449        -5.04666         3.09786
           18435         75.8269         72.7764        -5.36726         3.36172
           18436         75.7442         72.7625        -5.28793         3.16671
           18437         76.2793         73.0997        -5.58548         3.43877
           18438         76.2019         73.0875        -5.51489         3.23851
           18439         76.7321         73.4308        -5.78879         3.51867
           18440         76.6599         73.4202        -5.72708         3.31310
           18441         77.1851         73.7700        -5.97665         3.60123
           18442         77.1181         73.7608        -5.92399         3.39029
           18443         77.6382         74.1176        -6.14849         3.68623
           18444         77.5764         74.1098        -6.10507         3.46991
           18445         78.0912         74.4736        -6.30365         3.77345
           18446         78.0347         74.4673        -6.26968         3.55174
           18447         78.5437         74.8385        -6.44142         3.86266
           18448         78.4927         74.8335        -6.41713         3.63557
           18449         78.9955         75.2123        -6.56101         3.95360
           18450         78.9500         75.2086        -6.54668         3.72117
           18451         79.4463         75.5952        -6.66157         4.04602
           18452         79.4064         75.5929        -6.65749         3.80829
           18453         79.8954         75.9874        -6.74218         4.13963
           18454         79.8615         75.9865        -6.74868         3.89667
           18455         80.3425         76.3890        -6.80184         4.23415
           18456         80.3146         76.3895        -6.81926         3.98605
           18457         80.7869         76.8000        -6.83945         4.32925
           18458         80.7654         76.8019        -6.86819         4.07614
           18459         81.2279         77.2205        -6.85386         4.42463
           18460         81.2131         77.2240        -6.89433         4.16663
           18461         81.6649         77.6505        -6.84383         4.51993
           18462         81.6570         77.6556        -6.89648         4.25722
           18463         82.0970         78.0900        -6.80800         4.61480
           18464         82.0965         78.0967        -6.87333         4.34757
           18465         82.5234         78.5389        -6.74495         4.70885
           18466         82.5306         78.5474        -6.82349         4.43733
           18467         82.9431         78.9971        -6.65316         4.80171
           18468         82.9584         79.0076        -6.74547         4.52613
           18469         83.3550         79.4644        -6.53100         4.89293
           18470         83.3790         79.4770        -6.63768         4.61359
           18471         83.7581         79.9408        -6.37674         4.98210
           18472         83.7912         79.9556        -6.49844         4.69929
           18473         84.1512         80.4259        -6.18856         5.06873
           18474         84.1940         80.4432        -6.32595         4.78281
           18475         84.5330         80.9195        -5.96449         5.15234
           18476         84.5861         80.9395        -6.11831         4.86370
           18477         84.9022         81.4212        -5.70249         5.23242
           18478         84.9662         81.4441        -5.87351         4.94146
           18479         85.2573         81.9308        -5.40038         5.30841
           18480         85.3330         81.9568        -5.58941         5.01560
           18481         85.5970         82.4476        -5.05584         5.37973
           18482         85.6850         82.4772        -5.26375         5.08558
           18483         85.9196         82.9714        -4.66644         5.44576
           18484         86.0207         83.0047        -4.89414         5.15083
           18485         86.2236         83.5015        -4.22961         5.50586
           18486         86.3385         83.5389        -4.47805         5.21075
           18487         86.5072         84.0372        -3.74264         5.55933
           18488         86.6368         84.0791        -4.01283         5.26468
           18489         86.7688         84.5780        -3.20266         5.60542
           18490         86.9139         84.6247        -3.49566         5.31195
           18491         87.0066         85.1230        -2.60665         5.64334
           18492         87.1680         85.1750        -2.92358         5.35183
           18493         87.2188         85.6715        -1.95142         5.67225
           18494         87.3974         85.7291        -2.29345         5.38354
           18495         87.4035         86.2225        -1.23363         5.69125
           18496         87.6002         86.2863        -1.60198         5.40624
           18497         87.5589         86.7749    -449.727E-03         5.69937
           18498         87.7746         86.8454    -845.692E-03         5.41905
           18499         87.6832         87.3278     404.020E-03         5.69559
           18500         87.9188         87.4055    -20.9097E-03         5.42103
           18501         87.7746         87.8799         1.33154         5.67879
           18502         88.0309         87.9653     876.235E-03         5.41114
           18503         87.8313         88.4299         2.33697         5.64780
           18504         88.1091         88.5237         1.84981         5.38831
           18505         87.8517         88.9763         3.42470         5.60134
           18506         88.1518         89.0791         2.90414         5.35135
           18507         87.8342         89.5177         4.59935         5.53805
           18508         88.1574         89.6302         4.04374         5.29903
           18509         87.7775         90.0522         5.86577         5.45647
           18510         88.1243         90.1752         5.27343         5.23000
           18511         87.6806         90.5781         7.22914         5.35504
           18512         88.0515         90.7123         6.59826         5.14282
           18513         87.5425         91.0934         8.69486         5.23210
           18514         87.9379         91.2397         8.02357         5.03596
           18515         87.3629         91.5959         10.2687         5.08584
           18516         87.7829         91.7551         9.55500         4.90776
           18517         87.1420         92.0833         11.9567         4.91436
           18518         87.5864         92.2564         11.1985         4.75647
           18519         86.8805         92.5529         13.7653         4.71561
           18520         87.3489         92.7409         12.9605         4.58021
           18521         86.5799         93.0021         15.7013         4.48743
           18522         87.0714         93.2061         14.8475         4.37699
           18523         86.2429         93.4279         17.7718         4.22749
           18524         86.7561         93.6491         16.8667         4.14466
           18525         85.8732         93.8270         19.9846         3.93335
           18526         86.4061         94.0666         19.0254         3.88097
           18527         85.4761         94.1959         22.3475         3.60240
           18528         86.0260         94.4553         21.3317         3.58353
           18529         85.0588         94.5309         24.8691         3.23189
           18530         85.6219         94.8114         23.7937         3.24978
           18531         84.6305         94.8279         27.5585         2.81893
           18532         85.2021         95.1311         26.4205         2.87707
           18533         84.2032         95.0825         30.4252         2.36045
           18534         84.7771         95.4101         29.2213         2.46256
           18535         83.7920         95.2899         33.4792         1.85326
           18536         84.3605         95.6438         32.2060         2.00330
           18537         83.4157         95.4453         36.7311         1.29402
           18538         83.9692         95.8272         35.3850         1.49620
           18539         83.0974         95.5430         40.1923     679.233E-03
           18540         83.6240         95.9551         38.7693     937.999E-03
           18541         82.8645         95.5770         43.8751     5.06668E-03
           18542         83.3503         96.0218         42.3706     325.355E-03
           18543         53.9092         60.2521         17.3078         2.52704
           18544         53.6800         60.1172         17.6507         2.38267
           18545         53.4710         59.9565         17.9867         2.53389
           18546         54.3564         60.5471         16.6322         2.52141
           18547         54.1235         60.4128         16.9729         2.37671
           18548         54.8124         60.8416         15.9597         2.51651
           18549         54.5758         60.7079         16.2984         2.37170
           18550         55.2765         61.1356         15.2905         2.51194
           18551         55.0365         61.0024         15.6274         2.36724
           18552         55.7483         61.4289         14.6247         2.50734
           18553         55.5050         61.2964         14.9599         2.36296
           18554         56.2271         61.7215         13.9627         2.50242
           18555         55.9809         61.5897         14.2962         2.35858
           18556         56.7124         62.0133         13.3047         2.49695
           18557         56.4635         61.8822         13.6364         2.35382
           18558         57.2034         62.3040         12.6512         2.49075
           18559         56.9523         62.1739         12.9810         2.34851
           18560         57.6994         62.5934         12.0026         2.48370
           18561         57.4465         62.4644         12.3304         2.34250
           18562         58.1997         62.8814         11.3594         2.47574
           18563         57.9454         62.7538         11.6850         2.33570
           18564         58.7035         63.1679         10.7221         2.46685
           18565         58.4483         63.0417         11.0452         2.32808
           18566         59.2102         63.4525         10.0913         2.45710
           18567         58.9546         63.3281         10.4116         2.31965
           18568         59.7190         63.7352         9.46741         2.44655
           18569         59.4634         63.6127         9.78460         2.31047
           18570         60.2292         64.0158         8.85102         2.43534
           18571         59.9742         63.8954         9.16480         2.30063
           18572         60.7401         64.2942         8.24261         2.42364
           18573         60.4863         64.1762         8.55265         2.29027
           18574         61.2511         64.5704         7.64268         2.41163
           18575         60.9989         64.4549         7.94863         2.27955
           18576         61.7617         64.8442         7.05168         2.39955
           18577         61.5116         64.7314         7.35320         2.26866
           18578         62.2714         65.1157         6.47003         2.38764
           18579         62.0238         65.0058         6.76679         2.25782
           18580         62.7795         65.3849         5.89813         2.37614
           18581         62.5350         65.2780         6.18981         2.24726
           18582         63.2858         65.6519         5.33634         2.36533
           18583         63.0448         65.5482         5.62262         2.23722
           18584         63.7899         65.9168         4.78497         2.35548
           18585         63.5527         65.8163         5.06556         2.22794
           18586         64.2915         66.1797         4.24430         2.34685
           18587         64.0584         66.0826         4.51892         2.21969
           18588         64.7904         66.4408         3.71457         2.33971
           18589         64.5618         66.3471         3.98298         2.21269
           18590         65.2864         66.7003         3.19601         2.33431
           18591         65.0626         66.6101         3.45796         2.20721
           18592         65.7794         66.9585         2.68877         2.33091
           18593         65.5606         66.8717         2.94407         2.20347
           18594         66.2694         67.2157         2.19301         2.32975
           18595         66.0557         67.1324         2.44145         2.20171
           18596         66.7563         67.4721         1.70884         2.33102
           18597         66.5480         67.3922         1.95027         2.20213
           18598         67.2402         67.7281         1.23635         2.33495
           18599         67.0373         67.6516         1.47062         2.20493
           18600         67.7212         67.9841     775.623E-03         2.34171
           18601         67.5239         67.9110         1.00259         2.21029
           18602         68.1994         68.2404     326.705E-03         2.35146
           18603         68.0077         68.1706     546.273E-03         2.21837
           18604         68.6749         68.4974    -110.356E-03         2.36435
           18605         68.4889         68.4308     101.717E-03         2.22933
           18606         69.1480         68.7556    -535.525E-03         2.38049
           18607         68.9677         68.6920    -331.026E-03         2.24328
           18608         69.6188         69.0154    -948.773E-03         2.40000
           18609         69.4442         68.9547    -751.913E-03         2.26032
           18610         70.0876         69.2771        -1.35006         2.42295
           18611         69.9186         69.2193        -1.16090         2.28056
           18612         70.5547         69.5412        -1.73936         2.44940
           18613         70.3913         69.4861        -1.55795         2.30405
           18614         71.0202         69.8082        -2.11663         2.47940
           18615         70.8623         69.7557        -1.94300         2.33085
           18616         71.4844         70.0785        -2.48179         2.51295
           18617         71.3319         70.0284        -2.31599         2.36098
           18618         71.9476         70.3525        -2.83479         2.55008
           18619         71.8005         70.3047        -2.67686         2.39446
           18620         72.4099         70.6307        -3.17553         2.59076
           18621         72.2681         70.5850        -3.02550         2.43128
           18622         72.8717         70.9134        -3.50388         2.63497
           18623         72.7351         70.8697        -3.36181         2.47143
           18624         73.3332         71.2012        -3.81971         2.68264
           18625         73.2016         71.1593        -3.68563         2.51487
           18626         73.7944         71.4943        -4.12283         2.73373
           18627         73.6678         71.4542        -3.99681         2.56154
           18628         74.2557         71.7933        -4.41303         2.78814
           18629         74.1340         71.7548        -4.29514         2.61138
           18630         74.7170         72.0985        -4.69007         2.84579
           18631         74.6002         72.0614        -4.58038         2.66430
           18632         75.1787         72.4103        -4.95365         2.90655
           18633         75.0666         72.3745        -4.85225         2.72022
           18634         75.6406         72.7290        -5.20344         2.97033
           18635         75.5332         72.6945        -5.11043         2.77902
           18636         76.1028         73.0550        -5.43906         3.03696
           18637         76.0002         73.0216        -5.35457         2.84058
           18638         76.5654         73.3887        -5.66007         3.10631
           18639         76.4675         73.3562        -5.58424         2.90477
           18640         77.0283         73.7302        -5.86599         3.17822
           18641         76.9350         73.6987        -5.79898         2.97144
           18642         77.4913         74.0799        -6.05628         3.25251
           18643         77.4027         74.0493        -5.99828         3.04043
           18644         77.9543         74.4382        -6.23033         3.32899
           18645         77.8705         74.4083        -6.18154         3.11158
           18646         78.4172         74.8051        -6.38749         3.40746
           18647         78.3381         74.7760        -6.34815         3.18471
           18648         78.8795         75.1809        -6.52703         3.48772
           18649         78.8054         75.1525        -6.49738         3.25961
           18650         79.3410         75.5659        -6.64814         3.56954
           18651         79.2720         75.5382        -6.62849         3.33608
           18652         79.8014         75.9602        -6.74998         3.65267
           18653         79.7375         75.9331        -6.74062         3.41392
           18654         80.2601         76.3638        -6.83158         3.73688
           18655         80.2016         76.3375        -6.83288         3.49288
           18656         80.7166         76.7770        -6.89195         3.82190
           18657         80.6638         76.7514        -6.90427         3.57273
           18658         81.1704         77.1999        -6.92997         3.90745
           18659         81.1235         77.1749        -6.95373         3.65322
           18660         81.6208         77.6323        -6.94448         3.99325
           18661         81.5800         77.6082        -6.98011         3.73406
           18662         82.0670         78.0744        -6.93421         4.07897
           18663         82.0327         78.0512        -6.98220         3.81500
           18664         82.5083         78.5262        -6.89779         4.16431
           18665         82.4809         78.5039        -6.95866         3.89571
           18666         82.9438         78.9875        -6.83379         4.24892
           18667         82.9236         78.9663        -6.90809         3.97590
           18668         83.3725         79.4583        -6.74066         4.33245
           18669         83.3600         79.4383        -6.82898         4.05523
           18670         83.7934         79.9384        -6.61675         4.41451
           18671         83.7891         79.9197        -6.71972         4.13337
           18672         84.2054         80.4277        -6.46032         4.49472
           18673         84.2098         80.4105        -6.57862         4.20993
           18674         84.6073         80.9259        -6.26950         4.57265
           18675         84.6210         80.9104        -6.40386         4.28455
           18676         84.9979         81.4327        -6.04232         4.64786
           18677         85.0214         81.4191        -6.19350         4.35681
           18678         85.3758         81.9478        -5.77670         4.71988
           18679         85.4098         81.9363        -5.94551         4.42628
           18680         85.7397         82.4708        -5.47043         4.78823
           18681         85.7848         82.4617        -5.65772         4.49251
           18682         86.0880         83.0013        -5.12117         4.85237
           18683         86.1450         82.9948        -5.32785         4.55502
           18684         86.4192         83.5387        -4.72645         4.91176
           18685         86.4888         83.5353        -4.95348         4.61329
           18686         86.7317         84.0826        -4.28365         4.96579
           18687         86.8148         84.0825        -4.53204         4.66680
           18688         87.0239         84.6323        -3.79002         5.01384
           18689         87.1211         84.6358        -4.06083         4.71495
           18690         87.2940         85.1870        -3.24266         5.05525
           18691         87.4063         85.1946        -3.53701         4.75714
           18692         87.5403         85.7461        -2.63849         5.08929
           18693         87.6684         85.7581        -2.95756         4.79271
           18694         87.7608         86.3086        -1.97427         5.11521
           18695         87.9058         86.3256        -2.31930         4.82096
           18696         87.9540         86.8737        -1.24660         5.13219
           18697         88.1165         86.8960        -1.61889         4.84115
           18698         88.1178         87.4402    -451.877E-03         5.13936
           18699         88.2989         87.4684    -852.781E-03         4.85248
           18700         88.2504         88.0071     413.712E-03         5.13578
           18701         88.4509         88.0418    -17.2490E-03         4.85411
           18702         88.3501         88.5731         1.35416         5.12047
           18703         88.5709         88.6149     891.645E-03         4.84511
           18704         88.4151         89.1369         2.37369         5.09235
           18705         88.6570         89.1863         1.87804         4.82451
           18706         88.4438         89.6970         3.47677         5.05027
           18707         88.7075         89.7548         2.94633         4.79126
           18708         88.4345         90.2518         4.66810         4.99301
           18709         88.7209         90.3186         4.10113         4.74424
           18710         88.3861         90.7996         5.95265         4.91925
           18711         88.6956         90.8763         5.34733         4.68225
           18712         88.2973         91.3385         7.33567         4.82758
           18713         88.6305         91.4258         6.69008         4.60400
           18714         88.1674         91.8664         8.82269         4.71650
           18715         88.5247         91.9652         8.13481         4.50812
           18716         87.9961         92.3811         10.4196         4.58440
           18717         88.3775         92.4924         9.68728         4.39314
           18718         87.7834         92.8802         12.1325         4.42955
           18719         88.1888         93.0049         11.3536         4.25747
           18720         87.5301         93.3611         13.9681         4.25012
           18721         87.9590         93.5003         13.1401         4.09946
           18722         87.2378         93.8209         15.9331         4.04417
           18723         87.6894         93.9759         15.0537         3.91730
           18724         86.9091         94.2567         18.0350         3.80960
           18725         87.3820         94.4285         17.1015         3.70910
           18726         86.5479         94.6650         20.2814         3.54423
           18727         87.0400         94.8551         19.2910         3.47285
           18728         86.1594         95.0423         22.6806         3.24572
           18729         86.6679         95.2521         21.6304         3.20642
           18730         85.7508         95.3849         25.2412         2.91160
           18731         86.2721         95.6158         24.1281         2.90753
           18732         85.3314         95.6884         27.9724         2.53929
           18733         85.8606         95.9421         26.7931         2.57382
           18734         84.9131         95.9486         30.8837         2.12605
           18735         85.4442         96.2268         29.6348         2.20278
           18736         84.5112         96.1605         33.9855         1.66903
           18737         85.0364         96.4652         32.6633         1.79177
           18738         84.1443         96.3190         37.2885         1.16523
           18739         84.6540         96.6523         35.8891         1.33806
           18740         83.8355         96.4188         40.8041     611.547E-03
           18741         84.3178         96.7826         39.3234     838.765E-03
           18742         83.6122         96.4534         44.5448     4.54858E-03
           18743         84.0533         96.8506         42.9778     290.921E-03
           18744         53.8926         60.2771         17.3137         2.23144
           18745         53.6641         60.1408         17.6570         2.08643
           18746         53.4529         59.9809         17.9939         2.23768
           18747         54.3412         60.5727         16.6371         2.22635
           18748         54.1089         60.4370         16.9780         2.08108
           18749         54.7983         60.8678         15.9641         2.22197
           18750         54.5624         60.7326         16.3028         2.07662
           18751         55.2635         61.1623         15.2947         2.21797
           18752         55.0242         61.0277         15.6314         2.07270
           18753         55.7363         61.4563         14.6291         2.21402
           18754         55.4938         61.3222         14.9639         2.06902
           18755         56.2162         61.7495         13.9674         2.20986
           18756         55.9706         61.6161         14.3003         2.06531
           18757         56.7026         62.0420         13.3100         2.20530
           18758         56.4543         61.9094         13.6410         2.06134
           18759         57.1947         62.3336         12.6572         2.20016
           18760         56.9441         62.2018         12.9862         2.05695
           18761         57.6920         62.6241         12.0094         2.19435
           18762         57.4394         62.4932         12.3362         2.05202
           18763         58.1938         62.9133         11.3671         2.18781
           18764         57.9397         62.7836         11.6915         2.04646
           18765         58.6993         63.2012         10.7306         2.18051
           18766         58.4441         63.0728         11.0525         2.04023
           18767         59.2080         63.4875         10.1005         2.17249
           18768         58.9521         63.3606         10.4196         2.03335
           18769         59.7190         63.7721         9.47732         2.16383
           18770         59.4629         63.6469         9.79324         2.02585
           18771         60.2317         64.0549         8.86146         2.15462
           18772         59.9759         63.9316         9.17398         2.01781
           18773         60.7456         64.3358         8.25342         2.14500
           18774         60.4906         64.2145         8.56223         2.00935
           18775         61.2599         64.6147         7.65365         2.13514
           18776         61.0061         64.4956         7.95844         2.00060
           18777         61.7742         64.8916         7.06261         2.12524
           18778         61.5221         64.7749         7.36306         1.99172
           18779         62.2878         65.1665         6.48068         2.11548
           18780         62.0378         65.0523         6.77650         1.98290
           18781         62.8004         65.4394         5.90827         2.10610
           18782         62.5530         65.3279         6.19915         1.97432
           18783         63.3116         65.7104         5.34571         2.09731
           18784         63.0671         65.6016         5.63136         1.96619
           18785         63.8209         65.9795         4.79332         2.08936
           18786         63.5797         65.8736         5.07347         1.95873
           18787         64.3281         66.2470         4.25138         2.08247
           18788         64.0905         66.1440         4.52577         1.95214
           18789         64.8330         66.5130         3.72014         2.07687
           18790         64.5993         66.4129         3.98854         1.94665
           18791         65.3353         66.7777         3.19983         2.07280
           18792         65.1057         66.6806         3.46200         1.94246
           18793         65.8350         67.0413         2.69061         2.07046
           18794         65.6098         66.9472         2.94637         1.93978
           18795         66.3320         67.3041         2.19266         2.07005
           18796         66.1113         67.2130         2.44182         1.93880
           18797         66.8261         67.5664         1.70611         2.07178
           18798         66.6102         67.4783         1.94851         1.93971
           18799         67.3176         67.8286         1.23106         2.07582
           18800         67.1065         67.7434         1.46655         1.94267
           18801         67.8064         68.0909     767.596E-03         2.08232
           18802         67.6003         68.0085     996.059E-03         1.94785
           18803         68.2926         68.3538     315.805E-03         2.09144
           18804         68.0915         68.2742     537.128E-03         1.95539
           18805         68.7764         68.6176    -124.255E-03         2.10330
           18806         68.5803         68.5406     89.8328E-03         1.96542
           18807         69.2579         68.8827    -552.530E-03         2.11801
           18808         69.0669         68.8083    -345.759E-03         1.97804
           18809         69.7373         69.1496    -968.969E-03         2.13567
           18810         69.5513         69.0776    -769.585E-03         1.99336
           18811         70.2149         69.4186        -1.37352         2.15633
           18812         70.0339         69.3489        -1.18159         2.01144
           18813         70.6907         69.6902        -1.76613         2.18007
           18814         70.5147         69.6227        -1.58170         2.03236
           18815         71.1652         69.9648        -2.14673         2.20692
           18816         70.9941         69.8993        -1.96986         2.05615
           18817         71.6384         70.2428        -2.51525         2.23690
           18818         71.4722         70.1792        -2.34599         2.08285
           18819         72.1107         70.5247        -2.87160         2.27002
           18820         71.9492         70.4628        -2.70999         2.11246
           18821         72.5822         70.8108        -3.21566         2.30626
           18822         72.4254         70.7505        -3.06175         2.14499
           18823         73.0532         71.1017        -3.54731         2.34560
           18824         72.9009         71.0428        -3.40115         2.18042
           18825         73.5238         71.3978        -3.86637         2.38799
           18826         73.3760         71.3402        -3.72804         2.21872
           18827         73.9942         71.6993        -4.17266         2.43339
           18828         73.8509         71.6429        -4.04222         2.25985
           18829         74.4647         72.0068        -4.46595         2.48173
           18830         74.3257         71.9514        -4.34347         2.30374
           18831         74.9352         72.3207        -4.74599         2.53291
           18832         74.8005         72.2661        -4.63156         2.35033
           18833         75.4060         72.6413        -5.01245         2.58685
           18834         75.2755         72.5874        -4.90619         2.39954
           18835         75.8770         72.9689        -5.26501         2.64344
           18836         75.7507         72.9157        -5.16702         2.45127
           18837         76.3484         73.3039        -5.50325         2.70256
           18838         76.2262         73.2512        -5.41369         2.50542
           18839         76.8200         73.6467        -5.72675         2.76408
           18840         76.7020         73.5944        -5.64576         2.56187
           18841         77.2918         73.9975        -5.93499         2.82785
           18842         77.1780         73.9455        -5.86276         2.62049
           18843         77.7637         74.3567        -6.12744         2.89373
           18844         77.6541         74.3049        -6.06415         2.68115
           18845         78.2356         74.7245        -6.30347         2.96155
           18846         78.1302         74.6728        -6.24936         2.74370
           18847         78.7072         75.1011        -6.46241         3.03113
           18848         78.6061         75.0495        -6.41772         2.80798
           18849         79.1783         75.4867        -6.60352         3.10229
           18850         79.0816         75.4353        -6.56854         2.87382
           18851         79.6485         75.8817        -6.72599         3.17483
           18852         79.5564         75.8302        -6.70102         2.94104
           18853         80.1174         76.2860        -6.82896         3.24854
           18854         80.0300         76.2346        -6.81432         3.00945
           18855         80.5847         76.6999        -6.91145         3.32320
           18856         80.5021         76.6485        -6.90753         3.07885
           18857         81.0496         77.1235        -6.97245         3.39857
           18858         80.9723         77.0721        -6.97963         3.14903
           18859         81.5118         77.5569        -7.01084         3.47441
           18860         81.4398         77.5055        -7.02956         3.21977
           18861         81.9705             78.        -7.02544         3.55047
           18862         81.9042         77.9487        -7.05616         3.29082
           18863         82.4249         78.4529        -7.01495         3.62647
           18864         82.3647         78.4018        -7.05818         3.36195
           18865         82.8744         78.9157        -6.97801         3.70213
           18866         82.8205         78.8647        -7.03430         3.43289
           18867         83.3180         79.3881        -6.91316         3.77714
           18868         83.2708         79.3374        -6.98308         3.50337
           18869         83.7547         79.8701        -6.81883         3.85119
           18870         83.7148         79.8199        -6.90301         3.57309
           18871         84.1836         80.3616        -6.69336         3.92394
           18872         84.1514         80.3120        -6.79246         3.64176
           18873         84.6035         80.8624        -6.53498         3.99505
           18874         84.5796         80.8135        -6.64971         3.70905
           18875         85.0133         81.3722        -6.34180         4.06413
           18876         84.9982         81.3243        -6.47292         3.77463
           18877         85.4117         81.8908        -6.11185         4.13081
           18878         85.4060         81.8440        -6.26015         3.83813
           18879         85.7974         82.4178        -5.84300         4.19466
           18880         85.8017         82.3723        -6.00933         3.89919
           18881         86.1690         82.9528        -5.53301         4.25524
           18882         86.1840         82.9090        -5.71828         3.95739
           18883         86.5250         83.4955        -5.17952         4.31210
           18884         86.5514         83.4535        -5.38467         4.01232
           18885         86.8638         84.0452        -4.78003         4.36472
           18886         86.9024         84.0053        -5.00607         4.06353
           18887         87.1840         84.6013        -4.33189         4.41260
           18888         87.2355         84.5640        -4.57987         4.11053
           18889         87.4838         85.1634        -3.83231         4.45517
           18890         87.5490         85.1290        -4.10336         4.15282
           18891         87.7614         85.7306        -3.27834         4.49183
           18892         87.8412         85.6994        -3.57363         4.18986
           18893         88.0152         86.3022        -2.66686         4.52195
           18894         88.1105         86.2747        -2.98763         4.22108
           18895         88.2433         86.8772        -1.99460         4.54486
           18896         88.3549         86.8539        -2.34215         4.24585
           18897         88.4439         87.4548        -1.25808         4.55982
           18898         88.5727         87.4361        -1.63379         4.26353
           18899         88.6152         88.0339    -453.660E-03         4.56606
           18900         88.7620         88.0202    -858.953E-03         4.27340
           18901         88.7553         88.6132     422.537E-03         4.56276
           18902         88.9210         88.6053    -13.8664E-03         4.27471
           18903         88.8624         89.1917         1.37457         4.54902
           18904         89.0480         89.1901     905.470E-03         4.26667
           18905         88.9348         89.7678         2.40673         4.52389
           18906         89.1410         89.7731         1.90326         4.24840
           18907         88.9708         90.3400         3.52356         4.48636
           18908         89.1985         90.3530         2.98397         4.21900
           18909         88.9689         90.9068         4.72984         4.43534
           18910         89.2187         90.9282         4.15227         4.17746
           18911         88.9278         91.4664         6.03062         4.36964
           18912         89.2004         91.4970         5.41314         4.12273
           18913         88.8464         92.0168         7.43126         4.28804
           18914         89.1422         92.0574         6.77182         4.05367
           18915         88.7238         92.5559         8.93736         4.18918
           18916         89.0432         92.6075         8.23382         3.96909
           18917         88.5598         93.0815         10.5549         4.07164
           18918         88.9029         93.1450         9.80498         3.86767
           18919         88.3544         93.5910         12.2902         3.93389
           18920         88.7210         93.6675         11.4915         3.74805
           18921         88.1085         94.0818         14.1498         3.77431
           18922         88.4982         94.1725         13.2999         3.60874
           18923         87.8237         94.5511         16.1409         3.59118
           18924         88.2355         94.6571         15.2370         3.44819
           18925         87.5025         94.9957         18.2708         3.38264
           18926         87.9352         95.1183         17.3102         3.26471
           18927         87.1488         95.4122         20.5474         3.14677
           18928         87.6003         95.5528         19.5271         3.05656
           18929         86.7681         95.7970         22.9790         2.88149
           18930         87.2355         95.9572         21.8960         2.82185
           18931         86.3673         96.1462         25.5744         2.58464
           18932         86.8470         96.3275         24.4253         2.55860
           18933         85.9559         96.4556         28.3428         2.25393
           18934         86.4430         96.6597         27.1241         2.26475
           18935         85.5459         96.7207         31.2941         1.88694
           18936         86.0343         96.9494         30.0021         1.93808
           18937         85.1524         96.9365         34.4386         1.48116
           18938         85.6343         97.1919         33.0694         1.57632
           18939         84.7941         97.0980         37.7871         1.03395
           18940         85.2599         97.3822         36.3366         1.17705
           18941         84.4939         97.1995         41.3513     542.586E-03
           18942         84.9320         97.5147         39.8151     737.754E-03
           18943         84.2794         97.2348         45.1437     4.02468E-03
           18944         84.6757         97.5838         43.5166     255.854E-03
           18945         53.8786         60.2997         17.3190         1.93524
           18946         53.6508         60.1618         17.6625         1.78959
           18947         53.4376         60.0029         18.0005         1.94080
           18948         54.3284         60.5959         16.6415         1.93073
           18949         54.0968         60.4586         16.9825         1.78489
           18950         54.7866         60.8915         15.9680         1.92690
           18951         54.5514         60.7547         16.3067         1.78101
           18952         55.2528         61.1865         15.2984         1.92345
           18953         55.0141         61.0503         15.6349         1.77765
           18954         55.7266         61.4810         14.6328         1.92010
           18955         55.4846         61.3453         14.9673         1.77453
           18956         56.2074         61.7749         13.9714         1.91664
           18957         55.9624         61.6398         14.3038         1.77144
           18958         56.6947         62.0680         13.3144         1.91288
           18959         56.4469         61.9336         13.6448         1.76818
           18960         57.1879         62.3604         12.6621         1.90868
           18961         56.9377         62.2267         12.9904         1.76461
           18962         57.6864         62.6518         12.0150         1.90395
           18963         57.4341         62.5189         12.3409         1.76062
           18964         58.1895         62.9421         11.3733         1.89864
           18965         57.9355         62.8103         11.6968         1.75614
           18966         58.6965         63.2312         10.7375         1.89272
           18967         58.4412         63.1005         11.0584         1.75112
           18968         59.2069         63.5190         10.1081         1.88621
           18969         58.9507         63.3896         10.4260         1.74558
           18970         59.7198         63.8053         9.48541         1.87918
           18971         59.4632         63.6773         9.80025         1.73955
           18972         60.2348         64.0900         8.86998         1.87171
           18973         59.9782         63.9637         9.18142         1.73309
           18974         60.7512         64.3730         8.26223         1.86391
           18975         60.4950         64.2485         8.56999         1.72628
           18976         61.2684         64.6543         7.66261         1.85593
           18977         61.0130         64.5317         7.96640         1.71924
           18978         61.7858         64.9339         7.07151         1.84790
           18979         61.5317         64.8134         7.37105         1.71211
           18980         62.3030         65.2118         6.48934         1.84002
           18981         62.0506         65.0934         6.78435         1.70503
           18982         62.8194         65.4879         5.91647         1.83246
           18983         62.5692         65.3717         6.20667         1.69817
           18984         63.3348         65.7623         5.35325         1.82542
           18985         63.0869         65.6486         5.63837         1.69169
           18986         63.8486         66.0352         4.79998         1.81909
           18987         63.6036         65.9239         5.07976         1.68578
           18988         64.3607         66.3067         4.25695         1.81367
           18989         64.1187         66.1979         4.53115         1.68061
           18990         64.8708         66.5769         3.72441         1.80935
           18991         64.6321         66.4706         3.99282         1.67637
           18992         65.3786         66.8460         3.20258         1.80634
           18993         65.1436         66.7423         3.46498         1.67323
           18994         65.8840         67.1144         2.69166         1.80481
           18995         65.6528         67.0132         2.94787         1.67137
           18996         66.3871         67.3821         2.19182         1.80494
           18997         66.1598         67.2835         2.44166         1.67095
           18998         66.8876         67.6496         1.70320         1.80690
           18999         66.6645         67.5535         1.94652         1.67213
           19000         67.3856         67.9171         1.22593         1.81083
           19001         67.1668         67.8234         1.46259         1.67506
           19002         67.8812         68.1850     760.108E-03         1.81689
           19003         67.6667         68.0936     989.980E-03         1.67987
           19004         68.3744         68.4537     305.826E-03         1.82518
           19005         68.1643         68.3645     528.806E-03         1.68668
           19006         68.8653         68.7234    -136.836E-03         1.83584
           19007         68.6597         68.6364     79.1579E-03         1.69560
           19008         69.3542         68.9946    -567.806E-03         1.84894
           19009         69.1530         68.9096    -358.883E-03         1.70674
           19010         69.8411         69.2677    -987.019E-03         1.86458
           19011         69.6443         69.1846    -785.239E-03         1.72016
           19012         70.3263         69.5430        -1.39440         1.88281
           19013         70.1339         69.4618        -1.19984         1.73595
           19014         70.8099         69.8211        -1.78989         1.90369
           19015         70.6218         69.7415        -1.60260         1.75415
           19016         71.2921         70.1024        -2.17340         1.92726
           19017         71.1084         70.0242        -1.99343         1.77480
           19018         71.7733         70.3872        -2.54484         1.95352
           19019         71.5938         70.3104        -2.37226         1.79793
           19020         72.2535         70.6759        -2.90411         1.98249
           19021         72.0781         70.6003        -2.73897         1.82355
           19022         72.7330         70.9692        -3.25108         2.01417
           19023         72.5617         70.8946        -3.09343         1.85167
           19024         73.2120         71.2672        -3.58559         2.04852
           19025         73.0447         71.1935        -3.43551         1.88226
           19026         73.6907         71.5705        -3.90749         2.08552
           19027         73.5273         71.4975        -3.76504         1.91531
           19028         74.1692         71.8794        -4.21655         2.12511
           19029         74.0097         71.8070        -4.08181         1.95078
           19030         74.6476         72.1944        -4.51254         2.16725
           19031         74.4919         72.1225        -4.38561         1.98862
           19032         75.1262         72.5159        -4.79519         2.21185
           19033         74.9742         72.4442        -4.67617         2.02876
           19034         75.6050         72.8442        -5.06418         2.25884
           19035         75.4567         72.7726        -4.95318         2.07115
           19036         76.0841         73.1796        -5.31915         2.30813
           19037         75.9394         73.1081        -5.21631         2.11570
           19038         76.5634         73.5226        -5.55970         2.35962
           19039         76.4223         73.4510        -5.46517         2.16233
           19040         77.0429         73.8734        -5.78537         2.41318
           19041         76.9054         73.8016        -5.69932         2.21092
           19042         77.5226         74.2324        -5.99566         2.46870
           19043         77.3887         74.1603        -5.91828         2.26139
           19044         78.0023         74.5998        -6.18999         2.52605
           19045         77.8721         74.5273        -6.12150         2.31360
           19046         78.4820         74.9760        -6.36775         2.58508
           19047         78.3555         74.9030        -6.30838         2.36743
           19048         78.9613         75.3611        -6.52826         2.64564
           19049         78.8386         75.2875        -6.47828         2.42274
           19050         79.4400         75.7554        -6.67075         2.70758
           19051         79.3212         75.6812        -6.63046         2.47940
           19052         79.9178         76.1591        -6.79442         2.77071
           19053         79.8030         76.0843        -6.76414         2.53724
           19054         80.3943         76.5723        -6.89837         2.83485
           19055         80.2837         76.4968        -6.87846         2.59611
           19056         80.8690         76.9952        -6.98165         2.89982
           19057         80.7628         76.9190        -6.97249         2.65582
           19058         81.3413         77.4279        -7.04320         2.96542
           19059         81.2398         77.3511        -7.04522         2.71621
           19060         81.8108         77.8705        -7.08192         3.03142
           19061         81.7142         77.7930        -7.09556         2.77707
           19062         82.2768         78.3230        -7.09659         3.09761
           19063         82.1854         78.2449        -7.12234         2.83821
           19064         82.7385         78.7855        -7.08591         3.16375
           19065         82.6526         78.7067        -7.12431         2.89941
           19066         83.1951         79.2578        -7.04852         3.22959
           19067         83.1151         79.1785        -7.10013         2.96045
           19068         83.6457         79.7400        -6.98291         3.29487
           19069         83.5721         79.6603        -7.04834         3.02109
           19070         84.0895         80.2319        -6.88753         3.35931
           19071         84.0226         80.1519        -6.96743         3.08108
           19072         84.5254         80.7334        -6.76069         3.42262
           19073         84.4658         80.6532        -6.85575         3.14016
           19074         84.9522         81.2443        -6.60059         3.48450
           19075         84.9004         81.1641        -6.71157         3.19806
           19076         85.3689         81.7643        -6.40535         3.54462
           19077         85.3254         81.6843        -6.53302         3.25449
           19078         85.7742         82.2932        -6.17295         3.60264
           19079         85.7396         82.2136        -6.31815         3.30912
           19080         86.1667         82.8307        -5.90125         3.65820
           19081         86.1417         82.7516        -6.06487         3.36165
           19082         86.5450         83.3763        -5.58800         3.71092
           19083         86.5303         83.2980        -5.77097         3.41173
           19084         86.9078         83.9295        -5.23079         3.76039
           19085         86.9039         83.8523        -5.43411         3.45898
           19086         87.2534         84.4899        -4.82711         3.80617
           19087         87.2612         84.4141        -5.05182         3.50303
           19088         87.5802         85.0569        -4.37426         3.84782
           19089         87.6005         84.9828        -4.62148         3.54346
           19090         87.8866         85.6299        -3.86944         3.88483
           19091         87.9202         85.5578        -4.14034         3.57983
           19092         88.1709         86.2080        -3.30965         3.91670
           19093         88.2186         86.1384        -3.60545         3.61167
           19094         88.4313         86.7905        -2.69174         3.94287
           19095         88.4940         86.7238        -3.01375         3.63850
           19096         88.6660         87.3766        -2.01239         3.96275
           19097         88.7445         87.3132        -2.36197         3.65977
           19098         88.8732         87.9651        -1.26808         3.97570
           19099         88.9684         87.9056        -1.64668         3.67492
           19100         89.0509         88.5552    -455.116E-03         3.98104
           19101         89.1638         88.5000    -864.236E-03         3.68334
           19102         89.1975         89.1455     430.426E-03         3.97806
           19103         89.3289         89.0953    -10.8161E-03         3.68439
           19104         89.3112         89.7348         1.39266         3.96598
           19105         89.4619         89.6902     917.629E-03         3.67736
           19106         89.3900         90.3216         2.43595         3.94396
           19107         89.5610         90.2833         1.92536         3.66153
           19108         89.4325         90.9046         3.56490         3.91112
           19109         89.6244         90.8731         3.01689         3.63609
           19110         89.4371         91.4819         4.78435         3.86652
           19111         89.6507         91.4582         4.19698         3.60018
           19112         89.4024         92.0517         6.09944         3.80912
           19113         89.6383         92.0366         5.47065         3.55290
           19114         89.3274         92.6122         7.51558         3.73784
           19115         89.5861         92.6065         6.84321         3.49328
           19116         89.2113         93.1611         9.03849         3.65151
           19117         89.4931         93.1658         8.32027         3.42026
           19118         89.0537         93.6961         10.6742         3.54890
           19119         89.3588         93.7122         9.90773         3.33273
           19120         88.8548         94.2148         12.4291         3.42867
           19121         89.1830         94.2434         11.6119         3.22951
           19122         88.6153         94.7143         14.3100         3.28941
           19123         88.9661         94.7566         13.4393         3.10933
           19124         88.3371         95.1918         16.3240         3.12962
           19125         88.7095         95.2491         15.3970         2.97084
           19126         88.0225         95.6441         18.4785         2.94770
           19127         88.4153         95.7177         17.4923         2.81261
           19128         87.6756         96.0678         20.7817         2.74197
           19129         88.0866         96.1591         19.7331         2.63312
           19130         87.3016         96.4592         23.2418         2.51064
           19131         87.7281         96.5698         22.1275         2.43077
           19132         86.9078         96.8142         25.8678         2.25182
           19133         87.3461         96.9458         24.6843         2.20385
           19134         86.5036         97.1287         28.6690         1.96353
           19135         86.9487         97.2831         27.4126         1.95060
           19136         86.1009         97.3980         31.6553         1.64368
           19137         86.5468         97.5772         30.3222         1.66912
           19138         85.7149         97.6173         34.8373         1.29009
           19139         86.1537         97.8233         33.4233         1.35744
           19140         85.3642         97.7812         38.2258     900.482E-03
           19141         85.7864         98.0163         36.7265         1.01352
           19142         85.0718         97.8843         41.8326     472.481E-03
           19143         85.4657         98.1507         40.2434     635.201E-03
           19144         84.8651         97.9201         45.6703     3.49575E-03
           19145         85.2167         98.2207         43.9857     220.257E-03
           19146         53.8671         60.3196         17.3236         1.63849
           19147         53.6398         60.1800         17.6674         1.49220
           19148         53.4249         60.0222         18.0063         1.64330
           19149         54.3179         60.6163         16.6453         1.63461
           19150         54.0869         60.4773         16.9864         1.48821
           19151         54.7771         60.9123         15.9713         1.63134
           19152         54.5424         60.7739         16.3100         1.48494
           19153         55.2442         61.2078         15.3014         1.62843
           19154         55.0060         61.0699         15.6378         1.48213
           19155         55.7188         61.5028         14.6358         1.62566
           19156         55.4773         61.3653         14.9700         1.47956
           19157         56.2005         61.7972         13.9746         1.62283
           19158         55.9559         61.6603         14.3066         1.47704
           19159         56.6886         62.0910         13.3180         1.61978
           19160         56.4412         61.9546         13.6478         1.47443
           19161         57.1827         62.3840         12.6661         1.61641
           19162         56.9328         62.2483         12.9937         1.47159
           19163         57.6822         62.6762         12.0195         1.61263
           19164         57.4301         62.5412         12.3447         1.46843
           19165         58.1864         62.9674         11.3783         1.60839
           19166         57.9324         62.8333         11.7010         1.46489
           19167         58.6947         63.2576         10.7431         1.60367
           19168         58.4393         63.1245         11.0631         1.46093
           19169         59.2065         63.5466         10.1142         1.59849
           19170         58.9500         63.4146         10.4312         1.45657
           19171         59.7212         63.8343         9.49192         1.59288
           19172         59.4640         63.7036         9.80583         1.45182
           19173         60.2381         64.1207         8.87684         1.58693
           19174         59.9806         63.9914         9.18735         1.44673
           19175         60.7566         64.4056         8.26933         1.58071
           19176         60.4992         64.2778         8.57618         1.44137
           19177         61.2762         64.6890         7.66980         1.57435
           19178         61.0194         64.5628         7.97273         1.43583
           19179         61.7963         64.9708         7.07865         1.56797
           19180         61.5404         64.8464         7.37740         1.43022
           19181         62.3165         65.2512         6.49627         1.56172
           19182         62.0619         65.1286         6.79058         1.42466
           19183         62.8362         65.5300         5.92302         1.55573
           19184         62.5833         65.4094         6.21262         1.41928
           19185         63.3551         65.8074         5.35923         1.55019
           19186         63.1042         65.6888         5.64388         1.41423
           19187         63.8728         66.0835         4.80521         1.54524
           19188         63.6242         65.9670         5.08468         1.40964
           19189         64.3890         66.3584         4.26125         1.54105
           19190         64.1430         66.2440         4.53531         1.40567
           19191         64.9035         66.6322         3.72761         1.53779
           19192         64.6603         66.5199         3.99605         1.40247
           19193         65.4160         66.9052         3.20450         1.53562
           19194         65.1758         66.7950         3.46713         1.40017
           19195         65.9263         67.1775         2.69214         1.53468
           19196         65.6895         67.0695         2.94877         1.39893
           19197         66.4345         67.4495         2.19070         1.53514
           19198         66.2011         67.3436         2.44117         1.39888
           19199         66.9404         67.7214         1.70033         1.53713
           19200         66.7106         67.6175         1.94451         1.40015
           19201         67.4441         67.9935         1.22117         1.54078
           19202         67.2179         67.8915         1.45891         1.40286
           19203         67.9454         68.2662     753.341E-03         1.54621
           19204         67.7230         68.1660     984.532E-03         1.40713
           19205         68.4446         68.5397     296.941E-03         1.55352
           19206         68.2260         68.4413     521.476E-03         1.41305
           19207         68.9417         68.8145    -147.933E-03         1.56281
           19208         68.7269         68.7178     69.8509E-03         1.42073
           19209         69.4368         69.0909    -581.199E-03         1.57416
           19210         69.2259         68.9957    -370.249E-03         1.43023
           19211         69.9302         69.3693        -1.00277         1.58764
           19212         69.7231         69.2756    -798.733E-03         1.44163
           19213         70.4218         69.6501        -1.41258         1.60330
           19214         70.2186         69.5577        -1.21551         1.45499
           19215         70.9121         69.9338        -1.81052         1.62119
           19216         70.7125         69.8425        -1.62050         1.47035
           19217         71.4010         70.2208        -2.19651         1.64135
           19218         71.2052         70.1304        -2.01360         1.48774
           19219         71.8889         70.5114        -2.57045         1.66378
           19220         71.6967         70.4218        -2.39470         1.50719
           19221         72.3759         70.8061        -2.93221         1.68849
           19222         72.1873         70.7172        -2.76369         1.52872
           19223         72.8623         71.1054        -3.28166         1.71549
           19224         72.6772         71.0169        -3.12043         1.55231
           19225         73.3482         71.4095        -3.61863         1.74474
           19226         73.1665         71.3214        -3.46477         1.57797
           19227         73.8337         71.7191        -3.94294         1.77623
           19228         73.6554         71.6311        -3.79653         1.60566
           19229         74.3192         72.0344        -4.25438         1.80992
           19230         74.1440         71.9464        -4.11550         1.63537
           19231         74.8046         72.3558        -4.55268         1.84575
           19232         74.6327         72.2677        -4.42145         1.66706
           19233         75.2901         72.6838        -4.83758         1.88367
           19234         75.1213         72.5954        -4.71409         1.70066
           19235         75.7757         73.0187        -5.10873         1.92362
           19236         75.6101         72.9298        -4.99312         1.73614
           19237         76.2616         73.3609        -5.36578         1.96550
           19238         76.0990         73.2714        -5.25820         1.77341
           19239         76.7477         73.7106        -5.60830         2.00924
           19240         76.5882         73.6205        -5.50891         1.81241
           19241         77.2341         74.0684        -5.83584         2.05474
           19242         77.0776         73.9775        -5.74482         1.85306
           19243         77.7205         74.4344        -6.04787         2.10191
           19244         77.5671         74.3425        -5.96544         1.89526
           19245         78.2070         74.8089        -6.24383         2.15062
           19246         78.0567         74.7161        -6.17020         1.93892
           19247         78.6933         75.1923        -6.42308         2.20075
           19248         78.5462         75.0983        -6.35852         1.98394
           19249         79.1793         75.5848        -6.58492         2.25218
           19250         79.0354         75.4896        -6.52971         2.03019
           19251         79.6645         75.9865        -6.72860         2.30478
           19252         79.5241         75.8900        -6.68305         2.07756
           19253         80.1488         76.3977        -6.85330         2.35839
           19254         80.0119         76.2999        -6.81775         2.12592
           19255         80.6318         76.8185        -6.95810         2.41286
           19256         80.4986         76.7194        -6.93293         2.17513
           19257         81.1129         77.2492        -7.04205         2.46803
           19258         80.9836         77.1487        -7.02766         2.22506
           19259         81.5916         77.6898        -7.10408         2.52373
           19260         81.4664         77.5879        -7.10091         2.27554
           19261         82.0674         78.1403        -7.14307         2.57977
           19262         81.9466         78.0370        -7.15160         2.32643
           19263         82.5396         78.6008        -7.15780         2.63598
           19264         82.4235         78.4963        -7.17853         2.37754
           19265         83.0075         79.0714        -7.14697         2.69214
           19266         82.8965         78.9656        -7.18046         2.42870
           19267         83.4702         79.5520        -7.10918         2.74804
           19268         83.3646         79.4449        -7.15602         2.47973
           19269         83.9270         80.0426        -7.04293         2.80347
           19270         83.8272         79.9343        -7.10376         2.53043
           19271         84.3768         80.5430        -6.94664         2.85819
           19272         84.2834         80.4337        -7.02214         2.58058
           19273         84.8186         81.0531        -6.81862         2.91195
           19274         84.7320         80.9428        -6.90950         2.62998
           19275         85.2515         81.5727        -6.65705         2.96449
           19276         85.1721         81.4616        -6.76410         2.67838
           19277         85.6741         82.1015        -6.46003         3.01554
           19278         85.6026         81.9899        -6.58405         2.72555
           19279         86.0852         82.6393        -6.22552         3.06481
           19280         86.0222         82.5272        -6.36740         2.77123
           19281         86.4836         83.1857        -5.95137         3.11199
           19282         86.4296         83.0735        -6.11202         2.81514
           19283         86.8677         83.7404        -5.63530         3.15674
           19284         86.8236         83.6281        -5.81570         2.85700
           19285         87.2363         84.3028        -5.27489         3.19874
           19286         87.2026         84.1908        -5.47608         2.89650
           19287         87.5876         84.8724        -4.86759         3.23761
           19288         87.5651         84.7610        -5.09066         2.93332
           19289         87.9202         85.4487        -4.41070         3.27296
           19290         87.9097         85.3382        -4.65680         2.96711
           19291         88.2323         86.0309        -3.90136         3.30437
           19292         88.2347         85.9218        -4.17171         2.99750
           19293         88.5223         86.6185        -3.33655         3.33140
           19294         88.5383         86.5110        -3.63245         3.02410
           19295         88.7883         87.2104        -2.71310         3.35359
           19296         88.8188         87.1050        -3.03590         3.04650
           19297         89.0286         87.8059        -2.02764         3.37042
           19298         89.0746         87.7030        -2.37876         3.06425
           19299         89.2414         88.4039        -1.27662         3.38136
           19300         89.3036         88.3041        -1.65757         3.07687
           19301         89.4248         89.0033    -456.285E-03         3.38584
           19302         89.5042         88.9072    -868.656E-03         3.08386
           19303         89.5770         89.6030     437.315E-03         3.38323
           19304         89.6744         89.5110    -8.14692E-03         3.08468
           19305         89.6962         90.2016         1.40835         3.37287
           19306         89.8125         90.1145     928.048E-03         3.07874
           19307         89.7806         90.7978         2.46124         3.35407
           19308         89.9167         90.7161         1.94424         3.06541
           19309         89.8287         91.3898         3.60063         3.32606
           19310         89.9852         91.3144         3.04498         3.04404
           19311         89.8388         91.9761         4.83143         3.28803
           19312         90.0166         91.9078         4.23509         3.01391
           19313         89.8096         92.5548         6.15886         3.23912
           19314         90.0093         92.4943         5.51965         2.97425
           19315         89.7402         93.1239         7.58838         3.17840
           19316         89.9621         93.0722         6.90403         2.92425
           19317         89.6296         93.6812         9.12577         3.10489
           19318         89.8742         93.6393         8.39389         2.86303
           19319         89.4775         94.2244         10.7772         3.01752
           19320         89.7450         94.1934         9.99522         2.78967
           19321         89.2842         94.7508         12.5490         2.91517
           19322         89.5742         94.7318         11.7143         2.70317
           19323         89.0504         95.2579         14.4482         2.79664
           19324         89.3626         95.2521         13.5580         2.60247
           19325         88.7777         95.7424         16.4819         2.66065
           19326         89.1112         95.7512         15.5331         2.48645
           19327         88.4689         96.2013         18.6577         2.50586
           19328         88.8221         96.2260         17.6472         2.35390
           19329         88.1278         96.6311         20.9836         2.33083
           19330         88.4988         96.6733         19.9083         2.20357
           19331         87.7598         97.0280         23.4683         2.13405
           19332         88.1457         97.0893         22.3244         2.03412
           19333         87.3720         97.3880         26.1206         1.91393
           19334         87.7691         97.4702         24.9046         1.84413
           19335         86.9740         97.7068         28.9500         1.66878
           19336         87.3774         97.8117         27.6580         1.63210
           19337         86.5776         97.9798         31.9665         1.39684
           19338         86.9812         98.1094         30.5944         1.39649
           19339         86.1981         98.2020         35.1807         1.09626
           19340         86.5941         98.3585         33.7240         1.13565
           19341         85.8540         98.3681         38.6036     765.125E-03
           19342         86.2329         98.5539         37.0579     847.861E-03
           19343         85.5684         98.4725         42.2470     401.429E-03
           19344         85.9184         98.6899         40.6073     531.341E-03
           19345         85.3685         98.5087         46.1236     2.96473E-03
           19346         85.6757         98.7607         44.3843     184.255E-03
           19347         53.8577         60.3365         17.3276         1.34127
           19348         53.6310         60.1952         17.6714         1.19434
           19349         53.4145         60.0387         18.0112         1.34527
           19350         54.3095         60.6336         16.6486         1.33804
           19351         54.0790         60.4929         16.9897         1.19110
           19352         54.7695         60.9301         15.9741         1.33535
           19353         54.5353         60.7898         16.3127         1.18845
           19354         55.2373         61.2260         15.3040         1.33298
           19355         54.9996         61.0862         15.6402         1.18620
           19356         55.7127         61.5214         14.6383         1.33074
           19357         55.4716         61.3820         14.9723         1.18416
           19358         56.1951         61.8162         13.9772         1.32849
           19359         55.9509         61.6774         14.3089         1.18219
           19360         56.6840         62.1105         13.3208         1.32610
           19361         56.4369         61.9721         13.6502         1.18017
           19362         57.1788         62.4041         12.6693         1.32346
           19363         56.9291         62.2663         12.9964         1.17798
           19364         57.6792         62.6970         12.0230         1.32052
           19365         57.4271         62.5598         12.3476         1.17556
           19366         58.1843         62.9890         11.3823         1.31722
           19367         57.9303         62.8526         11.7043         1.17285
           19368         58.6937         63.2801         10.7475         1.31355
           19369         58.4381         63.1445         11.0667         1.16984
           19370         59.2067         63.5701         10.1189         1.30953
           19371         58.9498         63.4355         10.4352         1.16651
           19372         59.7228         63.8590         9.49706         1.30518
           19373         59.4650         63.7255         9.81016         1.16289
           19374         60.2412         64.1467         8.88225         1.30055
           19375         59.9829         64.0144         9.19195         1.15901
           19376         60.7615         64.4332         8.27492         1.29573
           19377         60.5031         64.3021         8.58098         1.15492
           19378         61.2831         64.7183         7.67546         1.29080
           19379         61.0249         64.5886         7.97764         1.15070
           19380         61.8055         65.0020         7.08426         1.28585
           19381         61.5478         64.8738         7.38232         1.14643
           19382         62.3281         65.2844         6.50170         1.28101
           19383         62.0714         65.1578         6.79539         1.14221
           19384         62.8505         65.5655         5.92813         1.27640
           19385         62.5951         65.4406         6.21721         1.13813
           19386         63.3724         65.8454         5.36387         1.27214
           19387         63.1185         65.7221         5.64812         1.13431
           19388         63.8932         66.1241         4.80924         1.26837
           19389         63.6413         66.0025         5.08843         1.13087
           19390         64.4129         66.4018         4.26451         1.26522
           19391         64.1631         66.2820         4.53844         1.12791
           19392         64.9310         66.6786         3.72996         1.26281
           19393         64.6835         66.5605         3.99842         1.12556
           19394         65.4473         66.9548         3.20579         1.26129
           19395         65.2025         66.8384         3.46862         1.12394
           19396         65.9618         67.2305         2.69224         1.26078
           19397         65.7197         67.1158         2.94926         1.12315
           19398         66.4743         67.5060         2.18947         1.26140
           19399         66.2350         67.3930         2.44054         1.12330
           19400         66.9846         67.7816         1.69766         1.26325
           19401         66.7485         67.6701         1.94263         1.12450
           19402         67.4929         68.0575         1.21694         1.26646
           19403         67.2598         67.9475         1.45569         1.12685
           19404         67.9991         68.3341     747.454E-03         1.27111
           19405         67.7692         68.2255     979.867E-03         1.13044
           19406         68.5033         68.6117     289.302E-03         1.27729
           19407         68.2766         68.5045     515.280E-03         1.13534
           19408         69.0054         68.8907    -157.405E-03         1.28507
           19409         68.7821         68.7846     62.0475E-03         1.14163
           19410         69.5058         69.1714    -592.571E-03         1.29454
           19411         69.2857         69.0664    -379.727E-03         1.14938
           19412         70.0044         69.4543        -1.01611         1.30574
           19413         69.7876         69.3502    -809.943E-03         1.15865
           19414         70.5015         69.7397        -1.42791         1.31872
           19415         70.2879         69.6364        -1.22850         1.16947
           19416         70.9973         70.0281        -1.82789         1.33351
           19417         70.7868         69.9253        -1.63530         1.18188
           19418         71.4918         70.3198        -2.21595         1.35015
           19419         71.2844         70.2175        -2.03024         1.19592
           19420         71.9853         70.6153        -2.59196         1.36864
           19421         71.7810         70.5133        -2.41320         1.21160
           19422         72.4780         70.9149        -2.95579         1.38900
           19423         72.2767         70.8130        -2.78406         1.22893
           19424         72.9701         71.2192        -3.30730         1.41122
           19425         72.7716         71.1173        -3.14266         1.24791
           19426         73.4617         71.5285        -3.64632         1.43529
           19427         73.2661         71.4264        -3.48885         1.26854
           19428         73.9530         71.8433        -3.97264         1.46118
           19429         73.7602         71.7407        -3.82243         1.29080
           19430         74.4442         72.1639        -4.28605         1.48887
           19431         74.2540         72.0607        -4.14319         1.31467
           19432         74.9354         72.4907        -4.58629         1.51831
           19433         74.7478         72.3868        -4.45089         1.34012
           19434         75.4266         72.8241        -4.87305         1.54946
           19435         75.2417         72.7194        -4.74524         1.36710
           19436         75.9180         73.1646        -5.14600         1.58226
           19437         75.7356         73.0588        -5.02593         1.39558
           19438         76.4097         73.5123        -5.40478         1.61665
           19439         76.2297         73.4054        -5.29259         1.42549
           19440         76.9015         73.8678        -5.64895         1.65256
           19441         76.7241         73.7597        -5.54482         1.45679
           19442         77.3935         74.2314        -5.87805         1.68991
           19443         77.2186         74.1217        -5.78217         1.48941
           19444         77.8856         74.6032        -6.09154         1.72862
           19445         77.7132         74.4921        -6.00415         1.52327
           19446         78.3777         74.9837        -6.28885         1.76860
           19447         78.2079         74.8709        -6.21018         1.55830
           19448         78.8695         75.3731        -6.46933         1.80975
           19449         78.7024         75.2586        -6.39966         1.59441
           19450         79.3610         75.7717        -6.63230         1.85196
           19451         79.1966         75.6553        -6.57192         1.63152
           19452         79.8518         76.1796        -6.77697         1.89512
           19453         79.6902         76.0613        -6.72621         1.66951
           19454         80.3415         76.5971        -6.90252         1.93911
           19455         80.1830         76.4768        -6.86174         1.70831
           19456         80.8298         77.0244        -7.00804         1.98381
           19457         80.6745         76.9020        -6.97762         1.74778
           19458         81.3162         77.4615        -7.09254         2.02908
           19459         81.1643         77.3371        -7.07292         1.78783
           19460         81.8003         77.9086        -7.15498         2.07479
           19461         81.6520         77.7822        -7.14661         1.82832
           19462         82.2813         78.3657        -7.19420         2.12078
           19463         82.1369         78.2373        -7.19758         1.86914
           19464         82.7587         78.8330        -7.20899         2.16690
           19465         82.6185         78.7025        -7.22465         1.91013
           19466         83.2318         79.3105        -7.19802         2.21298
           19467         83.0961         79.1779        -7.22654         1.95117
           19468         83.6996         79.7980        -7.15989         2.25885
           19469         83.5689         79.6635        -7.20189         1.99210
           19470         84.1615         80.2955        -7.09311         2.30434
           19471         84.0361         80.1591        -7.14924         2.03276
           19472         84.6164         80.8030        -6.99606         2.34924
           19473         84.4968         80.6648        -7.06703         2.07299
           19474         85.0632         81.3203        -6.86705         2.39335
           19475         84.9500         81.1804        -6.95361         2.11261
           19476         85.5010         81.8471        -6.70425         2.43647
           19477         85.3946         81.7057        -6.80720         2.15144
           19478         85.9286         82.3833        -6.50574         2.47836
           19479         85.8295         82.2405        -6.62593         2.18927
           19480         86.3446         82.9285        -6.26947         2.51878
           19481         86.2535         82.7845        -6.40781         2.22591
           19482         86.7478         83.4824        -5.99327         2.55749
           19483         86.6654         83.3375        -6.15071         2.26113
           19484         87.1369         84.0446        -5.67485         2.59422
           19485         87.0637         83.8989        -5.85241         2.29471
           19486         87.5102         84.6147        -5.31176         2.62867
           19487         87.4471         84.4685        -5.51052         2.32638
           19488         87.8664         85.1920        -4.90143         2.66056
           19489         87.8140         85.0456        -5.12252         2.35591
           19490         88.2037         85.7760        -4.44115         2.68955
           19491         88.1629         85.6298        -4.68577         2.38300
           19492         88.5206         86.3661        -3.92802         2.71531
           19493         88.4921         86.2203        -4.19745         2.40737
           19494         88.8153         86.9614        -3.35902         2.73748
           19495         88.8000         86.8165        -3.65459         2.42869
           19496         89.0861         87.5612        -2.73093         2.75566
           19497         89.0848         87.4176        -3.05404         2.44664
           19498         89.3311         88.1646        -2.04035         2.76944
           19499         89.3448         88.0228        -2.39251         2.46086
           19500         89.5486         88.7704        -1.28370         2.77839
           19501         89.5781         88.6309        -1.66647         2.47096
           19502         89.7367         89.3778    -457.203E-03         2.78201
           19503         89.7829         89.2410    -872.237E-03         2.47653
           19504         89.8935         89.9853     443.146E-03         2.77981
           19505         89.9573         89.8520    -5.90186E-03         2.47714
           19506         90.0174         90.5917         1.42155         2.77125
           19507         90.0996         90.4624     936.663E-03         2.47233
           19508         90.1064         91.1955         2.48247         2.75575
           19509         90.2079         91.0710         1.95980         2.46158
           19510         90.1591         91.7952         3.63061         2.73267
           19511         90.2807         91.6762         3.06812         2.44438
           19512         90.1738         92.3890         4.87093         2.70136
           19513         90.3162         92.2764         4.26647         2.42013
           19514         90.1493         92.9750         6.20868         2.66111
           19515         90.3130         92.8697         5.55998         2.38823
           19516         90.0844         93.5513         7.64940         2.61116
           19517         90.2701         93.4541         6.95407         2.34802
           19518         89.9785         94.1156         9.19893         2.55069
           19519         90.1863         94.0276         8.45445         2.29881
           19520         89.8311         94.6656         10.8635         2.47883
           19521         90.0612         94.5878         10.0672         2.23984
           19522         89.6424         95.1985         12.6495         2.39467
           19523         89.8947         95.1322         11.7986         2.17033
           19524         89.4133         95.7117         14.5640         2.29721
           19525         89.6872         95.6582         13.6555         2.08941
           19526         89.1454         96.2022         16.6141         2.18542
           19527         89.4401         96.1627         15.6450         1.99618
           19528         88.8414         96.6666         18.8077         2.05819
           19529         89.1553         96.6427         17.7746         1.88970
           19530         88.5051         97.1014         21.1528         1.91433
           19531         88.8363         97.0947         20.0522         1.76894
           19532         88.1421         97.5030         23.6580         1.75263
           19533         88.4877         97.5151         22.4863         1.63284
           19534         87.7594         97.8671         26.3323         1.57176
           19535         88.1157         97.8999         25.0856         1.48026
           19536         87.3666         98.1896         29.1853         1.37035
           19537         87.7286         98.2449         27.8596         1.31000
           19538         86.9756         98.4656         32.2270         1.14697
           19539         87.3372         98.5457         30.8179         1.12083
           19540         86.6015         98.6902         35.4681     900.103E-03
           19541         86.9550         98.7972         33.9711     911.423E-03
           19542         86.2631         98.8581         38.9197     628.174E-03
           19543         86.5988         98.9944         37.3300     680.416E-03
           19544         85.9832         98.9636         42.5937     329.554E-03
           19545         86.2894         99.1318         40.9061     426.375E-03
           19546         85.7891         99.0002         46.5028     2.42991E-03
           19547         86.0520         99.2033         44.7116     147.828E-03
           19548         53.8504         60.3503         17.3307         1.04364
           19549         53.6243         60.2072         17.6745     896.094E-03
           19550         53.4063         60.0521         18.0152         1.04680
           19551         54.3029         60.6477         16.6512         1.04110
           19552         54.0730         60.5052         16.9922     893.639E-03
           19553         54.7636         60.9445         15.9763         1.03899
           19554         54.5300         60.8025         16.3148     891.640E-03
           19555         55.2321         61.2408         15.3060         1.03715
           19556         54.9949         61.0991         15.6421     889.947E-03
           19557         55.7080         61.5365         14.6403         1.03544
           19558         55.4674         61.3953         14.9740     888.430E-03
           19559         56.1910         61.8317         13.9792         1.03373
           19560         55.9472         61.6909         14.3106     886.976E-03
           19561         56.6805         62.1264         13.3230         1.03193
           19562         56.4337         61.9860         13.6520     885.492E-03
           19563         57.1760         62.4205         12.6717         1.02995
           19564         56.9265         62.2806         12.9983     883.901E-03
           19565         57.6770         62.7139         12.0258         1.02775
           19566         57.4251         62.5745         12.3498     882.147E-03
           19567         58.1829         63.0065         11.3853         1.02529
           19568         57.9289         62.8678         11.7068     880.193E-03
           19569         58.6932         63.2983         10.7508         1.02256
           19570         58.4373         63.1603         11.0695     878.017E-03
           19571         59.2072         63.5892         10.1226         1.01957
           19572         58.9499         63.4520         10.4382     875.617E-03
           19573         59.7243         63.8791         9.50097         1.01633
           19574         59.4660         63.7428         9.81339     873.003E-03
           19575         60.2440         64.1679         8.88637         1.01288
           19576         59.9849         64.0326         9.19538     870.204E-03
           19577         60.7658         64.4555         8.27917         1.00929
           19578         60.5063         64.3213         8.58456     867.257E-03
           19579         61.2889         64.7420         7.67977         1.00562
           19580         61.0294         64.6089         7.98130     864.216E-03
           19581         61.8131         65.0273         7.08853         1.00195
           19582         61.5538         64.8954         7.38598     861.141E-03
           19583         62.3376         65.3113         6.50582     998.361E-03
           19584         62.0790         65.1808         6.79896     858.102E-03
           19585         62.8622         65.5942         5.93199     994.948E-03
           19586         62.6045         65.4650         6.22060     855.176E-03
           19587         63.3864         65.8761         5.36736     991.809E-03
           19588         63.1299         65.7482         5.65124     852.443E-03
           19589         63.9098         66.1569         4.81224     989.048E-03
           19590         63.6548         66.0304         5.09117     849.988E-03
           19591         64.4321         66.4368         4.26691     986.764E-03
           19592         64.1788         66.3117         4.54070     847.899E-03
           19593         64.9531         66.7161         3.73162     985.061E-03
           19594         64.7017         66.5924         4.00011     846.263E-03
           19595         65.4726         66.9948         3.20663     984.040E-03
           19596         65.2233         66.8724         3.46963     845.165E-03
           19597         65.9903         67.2731         2.69212     983.796E-03
           19598         65.7433         67.1521         2.94949     844.690E-03
           19599         66.5062         67.5515         2.18831     984.424E-03
           19600         66.2615         67.4316         2.43989     844.920E-03
           19601         67.0201         67.8299         1.69535     986.011E-03
           19602         66.7780         67.7113         1.94103     845.932E-03
           19603         67.5321         68.1089         1.21339     988.640E-03
           19604         67.2926         67.9913         1.45305     847.799E-03
           19605         68.0421         68.3887     742.582E-03     992.386E-03
           19606         67.8052         68.2720     976.108E-03     850.588E-03
           19607         68.5502         68.6695     283.036E-03     997.316E-03
           19608         68.3160         68.5537     510.337E-03     854.361E-03
           19609         69.0565         68.9519    -165.129E-03         1.00349
           19610         68.8250         68.8368     55.8602E-03     859.173E-03
           19611         69.5610         69.2361    -601.810E-03         1.01096
           19612         69.3322         69.1216    -387.211E-03     865.072E-03
           19613         70.0639         69.5225        -1.02690         1.01978
           19614         69.8378         69.4084    -818.770E-03     872.100E-03
           19615         70.5653         69.8116        -1.44031         1.02998
           19616         70.3418         69.6978        -1.23871     880.293E-03
           19617         71.0655         70.1037        -1.84192         1.04158
           19618         70.8445         69.9900        -1.64692     889.679E-03
           19619         71.5645         70.3992        -2.23161         1.05461
           19620         71.3461         70.2854        -2.04328     900.279E-03
           19621         72.0625         70.6986        -2.60928         1.06909
           19622         71.8465         70.5845        -2.42768     912.107E-03
           19623         72.5597         71.0022        -2.97477         1.08501
           19624         72.3462         70.8878        -2.79998     925.171E-03
           19625         73.0564         71.3106        -3.32792         1.10238
           19626         72.8451         71.1955        -3.16003     939.473E-03
           19627         73.5526         71.6240        -3.66857         1.12117
           19628         73.3436         71.5082        -3.50765     955.008E-03
           19629         74.0485         71.9429        -3.99651         1.14139
           19630         73.8417         71.8261        -3.84265     971.764E-03
           19631         74.5443         72.2677        -4.31149         1.16300
           19632         74.3396         72.1499        -4.16481     989.724E-03
           19633         75.0401         72.5988        -4.61327         1.18598
           19634         74.8374         72.4797        -4.47387         1.00887
           19635         75.5359         72.9367        -4.90152         1.21028
           19636         75.3353         72.8161        -4.76955         1.02916
           19637         76.0319         73.2815        -5.17592         1.23587
           19638         75.8333         73.1594        -5.05152         1.05058
           19639         76.5281         73.6338        -5.43608         1.26270
           19640         76.3314         73.5099        -5.31941         1.07307
           19641         77.0245         73.9939        -5.68157         1.29070
           19642         76.8298         73.8681        -5.57283         1.09661
           19643         77.5211         74.3621        -5.91191         1.31983
           19644         77.3282         74.2342        -5.81130         1.12113
           19645         78.0177         74.7386        -6.12657         1.35002
           19646         77.8268         74.6086        -6.03433         1.14658
           19647         78.5142         75.1239        -6.32496         1.38119
           19648         78.3254         74.9916        -6.24135         1.17291
           19649         79.0106         75.5181        -6.50644         1.41327
           19650         78.8239         75.3835        -6.43174         1.20005
           19651         79.5065         75.9216        -6.67030         1.44618
           19652         79.3220         75.7845        -6.60482         1.22794
           19653         80.0016         76.3345        -6.81577         1.47983
           19654         79.8195         76.1948        -6.75986         1.25650
           19655         80.4957         76.7570        -6.94200         1.51413
           19656         80.3160         76.6147        -6.89603         1.28565
           19657         80.9883         77.1894        -7.04809         1.54898
           19658         80.8113         77.0444        -7.01247         1.31532
           19659         81.4791         77.6317        -7.13305         1.58427
           19660         81.3049         77.4839        -7.10821         1.34542
           19661         81.9673         78.0840        -7.19580         1.61990
           19662         81.7963         77.9336        -7.18224         1.37585
           19663         82.4526         78.5465        -7.23521         1.65576
           19664         82.2850         78.3933        -7.23343         1.40652
           19665         82.9342         79.0192        -7.25004         1.69171
           19666         82.7703         78.8633        -7.26060         1.43733
           19667         83.4114         79.5021        -7.23896         1.72764
           19668         83.2515         79.3434        -7.26246         1.46817
           19669         83.8833         79.9952        -7.20057         1.76340
           19670         83.7279         79.8338        -7.23764         1.49893
           19671         84.3493         80.4983        -7.13336         1.79886
           19672         84.1987         80.3344        -7.18469         1.52949
           19673         84.8082         81.0115        -7.03570         1.83386
           19674         84.6629         80.8450        -7.10203         1.55973
           19675         85.2590         81.5345        -6.90590         1.86825
           19676         85.1196         81.3656        -6.98799         1.58950
           19677         85.7008         82.0672        -6.74211         1.90187
           19678         85.5677         81.8960        -6.84080         1.61868
           19679         86.1323         82.6092        -6.54240         1.93452
           19680         86.0061         82.4359        -6.65858         1.64711
           19681         86.5523         83.1604        -6.30472         1.96604
           19682         86.4336         82.9851        -6.43931         1.67465
           19683         86.9594         83.7203        -6.02688         1.99621
           19684         86.8489         83.5432        -6.18088         1.70112
           19685         87.3523         84.2886        -5.70656         2.02484
           19686         87.2506         84.1100        -5.88102         1.72634
           19687         87.7295         84.8647        -5.34132         2.05170
           19688         87.6374         84.6849        -5.53736         1.75015
           19689         88.0895         85.4482        -4.92857         2.07655
           19690         88.0076         85.2674        -5.14736         1.77234
           19691         88.4307         86.0385        -4.46556         2.09915
           19692         88.3599         85.8570        -4.70835         1.79269
           19693         88.7514         86.6348        -3.94940         2.11922
           19694         88.6925         86.4530        -4.21750         1.81100
           19695         89.0499         87.2364        -3.37703         2.13649
           19696         89.0037         87.0547        -3.67183         1.82702
           19697         89.3245         87.8425        -2.74520         2.15065
           19698         89.2918         87.6613        -3.06818         1.84050
           19699         89.5733         88.4521        -2.05051         2.16137
           19700         89.5551         88.2719        -2.40320         1.85116
           19701         89.7945         89.0643        -1.28935         2.16832
           19702         89.7917         88.8856        -1.67339         1.85874
           19703         89.9863         89.6779    -457.898E-03         2.17112
           19704         89.9998         89.5012    -875.001E-03         1.86291
           19705         90.1469         90.2917     447.872E-03         2.16937
           19706         90.1775         90.1176    -4.11704E-03         1.86335
           19707         90.2745         90.9043         1.43220         2.16266
           19708         90.3230         90.7336     943.419E-03         1.85970
           19709         90.3673         91.5143         2.49958         2.15052
           19710         90.4346         91.3476         1.97198         1.85159
           19711         90.4237         92.1201         3.65474         2.13247
           19712         90.5106         91.9582         3.08621         1.83862
           19713         90.4421         92.7199         4.90270         2.10800
           19714         90.5494         92.5636         4.29099         1.82035
           19715         90.4213         93.3119         6.24875         2.07655
           19716         90.5495         93.1621         5.59149         1.79633
           19717         90.3601         93.8939         7.69846         2.03753
           19718         90.5097         93.7516         6.99316         1.76605
           19719         90.2578         94.4638         9.25773         1.99029
           19720         90.4292         94.3301         8.50176         1.72900
           19721         90.1142         95.0191         10.9328         1.93417
           19722         90.3074         94.8951         10.1234         1.68461
           19723         89.9292         95.5573         12.7302         1.86845
           19724         90.1441         95.4442         11.8644         1.63229
           19725         89.7039         96.0755         14.6570         1.79235
           19726         89.9399         95.9746         13.7317         1.57139
           19727         89.4398         96.5706         16.7204         1.70507
           19728         89.6961         96.4833         15.7324         1.50124
           19729         89.1396         97.0394         18.9282         1.60574
           19730         89.4147         96.9673         17.8740         1.42111
           19731         88.8073         97.4783         21.2886         1.49346
           19732         89.0992         97.4230         20.1646         1.33025
           19733         88.4482         97.8836         23.8103         1.36724
           19734         88.7540         97.8467         22.6126         1.22786
           19735         88.0697         98.2510         26.5022         1.22609
           19736         88.3855         98.2346         25.2269         1.11308
           19737         87.6811         98.5763         29.3741         1.06893
           19738         88.0021         98.5824         28.0168     985.020E-03
           19739         87.2944         98.8548         32.4361     894.640E-03
           19740         87.6145         98.8854         30.9923     842.741E-03
           19741         86.9248         99.0814         35.6988     702.046E-03
           19742         87.2361         99.1389         34.1638     685.261E-03
           19743         86.5909         99.2507         39.1734     489.923E-03
           19744         86.8839         99.3376         37.5423     511.553E-03
           19745         86.3156         99.3570         42.8719     256.996E-03
           19746         86.5785         99.4759         41.1392     320.543E-03
           19747         86.1262         99.3940         46.8070     1.89094E-03
           19748         86.3452         99.5479         44.9668     111.127E-03
           19749         53.8450         60.3608         17.3332     745.689E-03
           19750         53.6196         60.2159         17.6768     597.560E-03
           19751         53.4003         60.0623         18.0182     747.971E-03
           19752         54.2981         60.6585         16.6532     743.861E-03
           19753         54.0688         60.5141         16.9941     595.911E-03
           19754         54.7593         60.9555         15.9780     742.349E-03
           19755         54.5262         60.8116         16.3163     594.570E-03
           19756         55.2283         61.2520         15.3075     741.038E-03
           19757         54.9916         61.1084         15.6434     593.441E-03
           19758         55.7047         61.5480         14.6417     739.826E-03
           19759         55.4645         61.4048         14.9752     592.434E-03
           19760         56.1881         61.8435         13.9807     738.626E-03
           19761         55.9446         61.7007         14.3118     591.476E-03
           19762         56.6780         62.1385         13.3246     737.369E-03
           19763         56.4315         61.9960         13.6533     590.504E-03
           19764         57.1740         62.4329         12.6735     735.998E-03
           19765         56.9247         62.2909         12.9997     589.467E-03
           19766         57.6755         62.7267         12.0277     734.476E-03
           19767         57.4237         62.5851         12.3514     588.327E-03
           19768         58.1820         63.0199         11.3875     732.776E-03
           19769         57.9280         62.8788         11.7085     587.060E-03
           19770         58.6929         63.3122         10.7533     730.890E-03
           19771         58.4370         63.1718         11.0713     585.649E-03
           19772         59.2077         63.6037         10.1252     728.820E-03
           19773         58.9501         63.4639         10.4403     584.094E-03
           19774         59.7256         63.8943         9.50379     726.584E-03
           19775         59.4668         63.7553         9.81562     582.401E-03
           19776         60.2463         64.1839         8.88934     724.207E-03
           19777         59.9865         64.0457         9.19775     580.587E-03
           19778         60.7691         64.4725         8.28224     721.729E-03
           19779         60.5087         64.3351         8.58702     578.679E-03
           19780         61.2935         64.7600         7.68287     719.197E-03
           19781         61.0328         64.6235         7.98382     576.710E-03
           19782         61.8189         65.0464         7.09160     716.664E-03
           19783         61.5582         64.9109         7.38850     574.720E-03
           19784         62.3449         65.3317         6.50878     714.193E-03
           19785         62.0845         65.1973         6.80142     572.756E-03
           19786         62.8711         65.6159         5.93476     711.849E-03
           19787         62.6113         65.4826         6.22293     570.867E-03
           19788         63.3970         65.8992         5.36985     709.701E-03
           19789         63.1381         65.7670         5.65337     569.107E-03
           19790         63.9223         66.1816         4.81436     707.820E-03
           19791         63.6645         66.0504         5.09304     567.532E-03
           19792         64.4467         66.4632         4.26858     706.280E-03
           19793         64.1902         66.3331         4.54223     566.201E-03
           19794         64.9699         66.7443         3.73275     705.152E-03
           19795         64.7148         66.6152         4.00122     565.169E-03
           19796         65.4916         67.0249         3.20713     704.508E-03
           19797         65.2382         66.8968         3.47026     564.496E-03
           19798         66.0118         67.3053         2.69192     704.418E-03
           19799         65.7602         67.1781         2.94957     564.236E-03
           19800         66.5302         67.5857         2.18732     704.946E-03
           19801         66.2805         67.4593         2.43935     564.444E-03
           19802         67.0468         67.8663         1.69350     706.157E-03
           19803         66.7991         67.7407         1.93980     565.171E-03
           19804         67.5615         68.1476         1.21063     708.108E-03
           19805         67.3160         68.0226         1.45109     566.466E-03
           19806         68.0744         68.4297     738.832E-03     710.854E-03
           19807         67.8310         68.3053     973.352E-03     568.373E-03
           19808         68.5855         68.7130     278.245E-03     714.442E-03
           19809         68.3442         68.5890     506.740E-03     570.934E-03
           19810         69.0948         68.9979    -171.009E-03     718.916E-03
           19811         68.8557         68.8741     51.3772E-03     574.185E-03
           19812         69.6024         69.2847    -608.821E-03     724.315E-03
           19813         69.3654         69.1611    -392.618E-03     578.159E-03
           19814         70.1085         69.5738        -1.03508     730.670E-03
           19815         69.8736         69.4501    -825.131E-03     582.884E-03
           19816         70.6132         69.8656        -1.44968     738.008E-03
           19817         70.3804         69.7417        -1.24605     588.384E-03
           19818         71.1166         70.1605        -1.85250     746.349E-03
           19819         70.8858         70.0362        -1.65526     594.677E-03
           19820         71.6190         70.4589        -2.24343     755.708E-03
           19821         71.3901         70.3340        -2.05265     601.777E-03
           19822         72.1204         70.7612        -2.62233     766.095E-03
           19823         71.8934         70.6356        -2.43808     609.696E-03
           19824         72.6210         71.0678        -2.98906     777.513E-03
           19825         72.3958         70.9413        -2.81141     618.437E-03
           19826         73.1211         71.3792        -3.34345     789.962E-03
           19827         72.8977         71.2515        -3.17248     628.002E-03
           19828         73.6207         71.6957        -3.68532     803.434E-03
           19829         73.3990         71.5667        -3.52112     638.388E-03
           19830         74.1201         72.0177        -4.01446     817.918E-03
           19831         73.8999         71.8873        -3.85714     649.588E-03
           19832         74.6194         72.3457        -4.33063     833.397E-03
           19833         74.4007         72.2136        -4.18029     661.590E-03
           19834         75.1186         72.6801        -4.63356     849.850E-03
           19835         74.9015         72.5462        -4.49032     674.379E-03
           19836         75.6179         73.0212        -4.92294     867.250E-03
           19837         75.4022         72.8853        -4.78695     687.937E-03
           19838         76.1174         73.3694        -5.19842     885.569E-03
           19839         75.9031         73.2313        -5.06983     702.241E-03
           19840         76.6170         73.7251        -5.45961     904.770E-03
           19841         76.4041         73.5846        -5.33861     717.266E-03
           19842         77.1168         74.0886        -5.70609     924.817E-03
           19843         76.9053         73.9457        -5.59287     732.981E-03
           19844         77.6168         74.4603        -5.93737     945.665E-03
           19845         77.4066         74.3147        -5.83215     749.356E-03
           19846         78.1168         74.8404        -6.15290     967.268E-03
           19847         77.9080         74.6920        -6.05593     766.353E-03
           19848         78.6167         75.2292        -6.35211     989.575E-03
           19849         78.4094         75.0780        -6.26366     783.934E-03
           19850         79.1164         75.6271        -6.53433         1.01253
           19851         78.9107         75.4728        -6.45470     802.056E-03
           19852         79.6156         76.0342        -6.69887         1.03608
           19853         79.4116         75.8769        -6.62837     820.676E-03
           19854         80.1141         76.4509        -6.84493         1.06016
           19855         79.9118         76.2903        -6.78393     839.744E-03
           19856         80.6114         76.8772        -6.97168         1.08470
           19857         80.4111         76.7134        -6.92057     859.210E-03
           19858         81.1073         77.3134        -7.07820         1.10964
           19859         80.9091         77.1462        -7.03740     879.018E-03
           19860         81.6012         77.7596        -7.16349         1.13489
           19861         81.4054         77.5890        -7.13346     899.112E-03
           19862         82.0927         78.2159        -7.22648         1.16039
           19863         81.8995         78.0419        -7.20773     919.430E-03
           19864         82.5811         78.6824        -7.26603         1.18604
           19865         82.3908         78.5049        -7.25908     939.908E-03
           19866         83.0658         79.1591        -7.28089         1.21177
           19867         82.8787         78.9782        -7.28632     960.478E-03
           19868         83.5461         79.6461        -7.26973         1.23748
           19869         83.3626         79.4618        -7.28816     981.069E-03
           19870         84.0212         80.1433        -7.23114         1.26307
           19871         83.8416         79.9557        -7.26323         1.00161
           19872         84.4902         80.6507        -7.16360         1.28844
           19873         84.3149         80.4597        -7.21005         1.02201
           19874         84.9521         81.1682        -7.06549         1.31348
           19875         84.7816         80.9739        -7.12707         1.04219
           19876         85.4060         81.6955        -6.93509         1.33809
           19877         85.2409         81.4980        -7.01259         1.06207
           19878         85.8508         82.2325        -6.77056         1.36214
           19879         85.6915         82.0320        -6.86484         1.08155
           19880         86.2852         82.7790        -6.56995         1.38551
           19881         86.1323         82.5756        -6.68193         1.10053
           19882         86.7081         83.3346        -6.33121         1.40806
           19883         86.5623         83.1285        -6.46185         1.11892
           19884         87.1182         83.8991        -6.05213         1.42965
           19885         86.9800         83.6904        -6.20246         1.13659
           19886         87.5140         84.4719        -5.73039         1.45013
           19887         87.3842         84.2610        -5.90149         1.15343
           19888         87.8941         85.0526        -5.36354         1.46934
           19889         87.7733         84.8397        -5.55656         1.16932
           19890         88.2570         85.6408        -4.94896         1.48712
           19891         88.1460         85.4260        -5.16513         1.18413
           19892         88.6011         86.2357        -4.48390         1.50329
           19893         88.5007         86.0195        -4.72450         1.19772
           19894         88.9246         86.8367        -3.96546         1.51765
           19895         88.8357         86.6194        -4.23185         1.20994
           19896         89.2260         87.4430        -3.39055         1.53000
           19897         89.1493         87.2250        -3.68417         1.22063
           19898         89.5034         88.0538        -2.75592         1.54012
           19899         89.4398         87.8355        -3.07828         1.22962
           19900         89.7550         88.6682        -2.05814         1.54779
           19901         89.7054         88.4501        -2.41085         1.23674
           19902         89.9791         89.2851        -1.29358         1.55274
           19903         89.9443         89.0677        -1.67832         1.24179
           19904         90.1737         89.9034    -458.397E-03         1.55473
           19905         90.1547         89.6873    -876.962E-03         1.24456
           19906         90.3371         90.5219     451.451E-03         1.55346
           19907         90.3348         90.3076    -2.82120E-03         1.24484
           19908         90.4675         91.1392         1.44023         1.54863
           19909         90.4827         90.9275     948.276E-03         1.24240
           19910         90.5630         91.7538         2.51247         1.53992
           19911         90.5966         91.5454         1.98073         1.23697
           19912         90.6222         92.3642         3.67292         1.52698
           19913         90.6749         92.1598         3.09919         1.22829
           19914         90.6434         92.9685         4.92663         1.50944
           19915         90.7160         92.7690         4.30857         1.21607
           19916         90.6254         93.5648         6.27892         1.48689
           19917         90.7184         93.3712         5.61407         1.20000
           19918         90.5670         94.1512         7.73540         1.45892
           19919         90.6810         93.9644         7.02117         1.17976
           19920         90.4675         94.7253         9.30200         1.42508
           19921         90.6028         94.5464         8.53565         1.15500
           19922         90.3266         95.2847         10.9850         1.38487
           19923         90.4833         95.1149         10.1636         1.12533
           19924         90.1445         95.8268         12.7910         1.33778
           19925         90.3224         95.6673         11.9116         1.09036
           19926         89.9220         96.3486         14.7270         1.28327
           19927         90.1205         96.2008         13.7863         1.04965
           19928         89.6607         96.8473         16.8004         1.22075
           19929         89.8791         96.7126         15.7950         1.00277
           19930         89.3635         97.3194         19.0189         1.14960
           19931         89.6001         97.1994         17.9452     949.234E-03
           19932         89.0341         97.7613         21.3908         1.06918
           19933         89.2870         97.6577         20.2451     888.525E-03
           19934         88.6781         98.1693         23.9249     978.794E-03
           19935         88.9443         98.0839         22.7031     820.112E-03
           19936         88.3026         98.5393         26.6301     877.716E-03
           19937         88.5784         98.4740         25.3281     743.428E-03
           19938         87.9172         98.8668         29.5162     765.183E-03
           19939         88.1976         98.8237         28.1295     657.878E-03
           19940         87.5338         99.1470         32.5933     640.396E-03
           19941         87.8127         99.1284         31.1172     562.837E-03
           19942         87.1675         99.3751         35.8723     502.515E-03
           19943         87.4371         99.3832         34.3018     457.648E-03
           19944         86.8371         99.5454         39.3642     350.668E-03
           19945         87.0877         99.5829         37.6942     341.630E-03
           19946         86.5653         99.6524         43.0810     183.947E-03
           19947         86.7852         99.7220         41.3060     214.068E-03
           19948         86.3794         99.6896         47.0357     1.35302E-03
           19949         86.5548         99.7943         45.1494     74.2266E-03
           19950         53.8415         60.3678         17.3348     447.507E-03
           19951         53.6168         60.2211         17.6782     298.829E-03
           19952         53.3964         60.0691         18.0203     448.886E-03
           19953         54.2950         60.6657         16.6545     446.404E-03
           19954         54.0663         60.5195         16.9952     298.000E-03
           19955         54.7565         60.9629         15.9791     445.494E-03
           19956         54.5240         60.8171         16.3172     297.328E-03
           19957         55.2258         61.2596         15.3085     444.709E-03
           19958         54.9896         61.1141         15.6442     296.763E-03
           19959         55.7025         61.5558         14.6427     443.986E-03
           19960         55.4628         61.4106         14.9760     296.261E-03
           19961         56.1862         61.8514         13.9817     443.275E-03
           19962         55.9431         61.7066         14.3125     295.785E-03
           19963         56.6765         62.1466         13.3256     442.533E-03
           19964         56.4303         62.0021         13.6540     295.304E-03
           19965         57.1728         62.4413         12.6746     441.727E-03
           19966         56.9237         62.2971         13.0005     294.793E-03
           19967         57.6747         62.7354         12.0290     440.832E-03
           19968         57.4229         62.5916         12.3523     294.232E-03
           19969         58.1815         63.0288         11.3890     439.835E-03
           19970         57.9275         62.8854         11.7095     293.609E-03
           19971         58.6929         63.3216         10.7548     438.729E-03
           19972         58.4368         63.1786         11.0724     292.916E-03
           19973         59.2081         63.6135         10.1269     437.516E-03
           19974         58.9502         63.4711         10.4415     292.151E-03
           19975         59.7266         63.9046         9.50562     436.204E-03
           19976         59.4674         63.7628         9.81693     291.319E-03
           19977         60.2479         64.1947         8.89126     434.811E-03
           19978         59.9875         64.0536         9.19914     290.429E-03
           19979         60.7714         64.4839         8.28423     433.359E-03
           19980         60.5102         64.3435         8.58847     289.491E-03
           19981         61.2965         64.7720         7.68488     431.875E-03
           19982         61.0348         64.6324         7.98530     288.524E-03
           19983         61.8229         65.0592         7.09359     430.392E-03
           19984         61.5609         64.9203         7.38997     287.547E-03
           19985         62.3499         65.3453         6.51069     428.946E-03
           19986         62.0879         65.2072         6.80286     286.583E-03
           19987         62.8771         65.6305         5.93654     427.577E-03
           19988         62.6155         65.4932         6.22430     285.657E-03
           19989         63.4042         65.9147         5.37144     426.325E-03
           19990         63.1431         65.7782         5.65461     284.796E-03
           19991         63.9307         66.1982         4.81571     425.234E-03
           19992         63.6704         66.0625         5.09412     284.027E-03
           19993         64.4565         66.4809         4.26963     424.346E-03
           19994         64.1970         66.3460         4.54311     283.380E-03
           19995         64.9811         66.7632         3.73345     423.705E-03
           19996         64.7227         66.6289         4.00186     282.882E-03
           19997         65.5043         67.0450         3.20741     423.353E-03
           19998         65.2472         66.9114         3.47060     282.563E-03
           19999         66.0261         67.3267         2.69173     423.332E-03
           20000         65.7703         67.1937         2.94958     282.450E-03
           20001         66.5462         67.6085         2.18661     423.681E-03
           20002         66.2919         67.4760         2.43900     282.570E-03
           20003         67.0646         67.8907         1.69223     424.439E-03
           20004         66.8118         67.7585         1.93904     282.949E-03
           20005         67.5812         68.1734         1.20874     425.639E-03
           20006         67.3300         68.0415         1.44988     283.612E-03
           20007         68.0960         68.4571     736.286E-03     427.314E-03
           20008         67.8464         68.3253     971.671E-03     284.580E-03
           20009         68.6090         68.7421     275.008E-03     429.494E-03
           20010         68.3611         68.6102     504.555E-03     285.874E-03
           20011         69.1204         69.0287    -174.970E-03     432.204E-03
           20012         68.8741         68.8966     48.6619E-03     287.513E-03
           20013         69.6301         69.3172    -613.534E-03     435.467E-03
           20014         69.3854         69.1848    -395.886E-03     289.512E-03
           20015         70.1383         69.6081        -1.04057     439.304E-03
           20016         69.8952         69.4752    -828.972E-03     291.887E-03
           20017         70.6451         69.9017        -1.45596     443.728E-03
           20018         70.4035         69.7681        -1.25048     294.648E-03
           20019         71.1508         70.1985        -1.85959     448.754E-03
           20020         70.9106         70.0640        -1.66029     297.805E-03
           20021         71.6553         70.4988        -2.25134     454.389E-03
           20022         71.4165         70.3632        -2.05829     301.366E-03
           20023         72.1590         70.8030        -2.63107     460.641E-03
           20024         71.9215         70.6662        -2.44433     305.335E-03
           20025         72.6619         71.1116        -2.99862     467.511E-03
           20026         72.4256         70.9734        -2.81828     309.715E-03
           20027         73.1642         71.4250        -3.35383     474.998E-03
           20028         72.9292         71.2851        -3.17997     314.506E-03
           20029         73.6662         71.7436        -3.69652     483.099E-03
           20030         73.4322         71.6019        -3.52923     319.708E-03
           20031         74.1678         72.0677        -4.02646     491.806E-03
           20032         73.9349         71.9240        -3.86584     325.317E-03
           20033         74.6694         72.3979        -4.34342     501.110E-03
           20034         74.4374         72.2519        -4.18959     331.326E-03
           20035         75.1710         72.7344        -4.64712     510.998E-03
           20036         74.9399         72.5861        -4.50021     337.730E-03
           20037         75.6726         73.0777        -4.93724     521.455E-03
           20038         75.4424         72.9268        -4.79741     344.517E-03
           20039         76.1743         73.4281        -5.21344     532.463E-03
           20040         75.9449         73.2745        -5.08084     351.677E-03
           20041         76.6763         73.7861        -5.47533     544.000E-03
           20042         76.4477         73.6295        -5.35015     359.198E-03
           20043         77.1784         74.1519        -5.72247     556.045E-03
           20044         76.9506         73.9923        -5.60492     367.064E-03
           20045         77.6806         74.5258        -5.95436     568.570E-03
           20046         77.4536         74.3630        -5.84468     375.259E-03
           20047         78.1829         74.9083        -6.17048     581.548E-03
           20048         77.9568         74.7421        -6.06891     383.766E-03
           20049         78.6850         75.2995        -6.37023     594.950E-03
           20050         78.4599         75.1298        -6.27706     392.565E-03
           20051         79.1870         75.6998        -6.55295     608.741E-03
           20052         78.9628         75.5265        -6.46849     401.634E-03
           20053         79.6884         76.1094        -6.71794     622.887E-03
           20054         79.4653         75.9324        -6.64252     410.953E-03
           20055         80.1890         76.5286        -6.86440     637.352E-03
           20056         79.9672         76.3477        -6.79840     420.495E-03
           20057         80.6886         76.9574        -6.99149     652.095E-03
           20058         80.4682         76.7726        -6.93531     430.237E-03
           20059         81.1866         77.3962        -7.09829     667.073E-03
           20060         80.9678         77.2074        -7.05238     440.150E-03
           20061         81.6827         77.8450        -7.18381     682.244E-03
           20062         81.4657         77.6521        -7.14863     450.205E-03
           20063         82.1763         78.3039        -7.24696     697.559E-03
           20064         81.9614         78.1070        -7.22304     460.373E-03
           20065         82.6668         78.7731        -7.28660     712.970E-03
           20066         82.4543         78.5720        -7.27449     470.621E-03
           20067         83.1536         79.2525        -7.30149     728.423E-03
           20068         82.9438         79.0473        -7.30177     480.915E-03
           20069         83.6360         79.7422        -7.29028     743.865E-03
           20070         83.4292         79.5329        -7.30360     491.219E-03
           20071         84.1131         80.2422        -7.25155     759.236E-03
           20072         83.9097         80.0288        -7.27860     501.496E-03
           20073         84.5841         80.7524        -7.18380     774.477E-03
           20074         84.3846         80.5350        -7.22529     511.706E-03
           20075         85.0481         81.2727        -7.08538     789.522E-03
           20076         84.8529         81.0513        -7.14211     521.807E-03
           20077         85.5040         81.8029        -6.95458     804.304E-03
           20078         85.3136         81.5776        -7.02737     531.756E-03
           20079         85.9507         82.3429        -6.78955     818.751E-03
           20080         85.7657         82.1138        -6.87929     541.504E-03
           20081         86.3872         82.8923        -6.58835     832.787E-03
           20082         86.2081         82.6596        -6.69597     551.004E-03
           20083         86.8121         83.4509        -6.34889     846.331E-03
           20084         86.6395         83.2147        -6.47539     560.202E-03
           20085         87.2241         84.0184        -6.06899     859.300E-03
           20086         87.0587         83.7789        -6.21542     569.045E-03
           20087         87.6218         84.5942        -5.74630     871.603E-03
           20088         87.4643         84.3516        -5.91379     577.474E-03
           20089         88.0039         85.1781        -5.37837     883.145E-03
           20090         87.8550         84.9326        -5.56810     585.427E-03
           20091         88.3687         85.7693        -4.96257     893.824E-03
           20092         88.2291         85.5213        -5.17580     592.838E-03
           20093         88.7147         86.3673        -4.49614     903.533E-03
           20094         88.5852         86.1171        -4.73420     599.637E-03
           20095         89.0401         86.9714        -3.97617     912.157E-03
           20096         88.9216         86.7193        -4.24046     605.751E-03
           20097         89.3434         87.5809        -3.39957     919.572E-03
           20098         89.2366         87.3273        -3.69157     611.099E-03
           20099         89.6227         88.1948        -2.76307     925.650E-03
           20100         89.5286         87.9402        -3.08435     615.599E-03
           20101         89.8762         88.8124        -2.06322     930.249E-03
           20102         89.7956         88.5571        -2.41544     619.158E-03
           20103         90.1021         89.4324        -1.29639     933.223E-03
           20104         90.0360         89.1771        -1.68128     621.683E-03
           20105         90.2986         90.0539    -458.719E-03     934.409E-03
           20106         90.2478         89.7990    -878.134E-03     623.068E-03
           20107         90.4639         90.6755     453.855E-03     933.640E-03
           20108         90.4292         90.4218    -2.03525E-03     623.205E-03
           20109         90.5961         91.2959         1.44561     930.731E-03
           20110         90.5785         91.0440     951.203E-03     621.975E-03
           20111         90.6936         91.9137         2.52109     925.488E-03
           20112         90.6938         91.6642         1.98599     619.253E-03
           20113         90.7546         92.5271         3.68508     917.702E-03
           20114         90.7735         92.2809         3.10700     614.904E-03
           20115         90.7777         93.1344         4.94263     907.149E-03
           20116         90.8160         92.8924         4.31915     608.783E-03
           20117         90.7615         93.7337         6.29909     893.591E-03
           20118         90.8198         93.4968         5.62766     600.737E-03
           20119         90.7049         94.3229         7.76009     876.772E-03
           20120         90.7838         94.0922         7.03802     590.600E-03
           20121         90.6073         94.8998         9.33159     856.420E-03
           20122         90.7070         94.6763         8.55604     578.196E-03
           20123         90.4683         95.4619         11.0199     832.245E-03
           20124         90.5889         95.2468         10.1878     563.338E-03
           20125         90.2881         96.0066         12.8316     803.936E-03
           20126         90.4294         95.8012         11.9399     545.825E-03
           20127         90.0674         96.5309         14.7738     771.164E-03
           20128         90.2290         96.3367         13.8191     525.445E-03
           20129         89.8081         97.0319         16.8538     733.581E-03
           20130         89.9889         96.8502         15.8326     501.971E-03
           20131         89.5128         97.5062         19.0795     690.816E-03
           20132         89.7114         97.3387         17.9881     475.163E-03
           20133         89.1855         97.9502         21.4591     642.477E-03
           20134         89.3998         97.7986         20.2935     444.768E-03
           20135         88.8314         98.3601         24.0014     588.151E-03
           20136         89.0586         98.2263         22.7575     410.516E-03
           20137         88.4580         98.7317         26.7155     527.403E-03
           20138         88.6942         98.6177         25.3889     372.125E-03
           20139         88.0747         99.0606         29.6111     459.774E-03
           20140         88.3150         98.9685         28.1971     329.298E-03
           20141         87.6935         99.3421         32.6984     384.784E-03
           20142         87.9317         99.2742         31.1923     281.720E-03
           20143         87.3295         99.5710         35.9881     301.932E-03
           20144         87.5577         99.5299         34.3847     229.066E-03
           20145         87.0014         99.7421         39.4916     210.694E-03
           20146         87.2101         99.7302         37.7855     170.995E-03
           20147         86.7319         99.8495         43.2207     110.528E-03
           20148         86.9094         99.8697         41.4063     107.148E-03
           20149         86.5484         99.8869         47.1885     814.371E-06
           20150         86.6808         99.9423         45.2592     37.1515E-03
           20151         53.8397         60.3714         17.3356     149.185E-03
           20152         53.6159         60.2228         17.6787    -68.9179E-09
           20153         53.3944         60.0726         18.0213     149.646E-03
           20154         54.2934         60.6693         16.6551     148.816E-03
           20155         54.0655         60.5213         16.9956    -67.0552E-09
           20156         54.7551         60.9667         15.9796     148.512E-03
           20157         54.5233         60.8189         16.3175    -59.6046E-09
           20158         55.2246         61.2634         15.3090     148.251E-03
           20159         54.9890         61.1160         15.6445    -55.8794E-09
           20160         55.7015         61.5597         14.6431     148.010E-03
           20161         55.4622         61.4125         14.9762    -54.0167E-09
           20162         56.1853         61.8554         13.9822     147.775E-03
           20163         55.9426         61.7085         14.3128    -46.5661E-09
           20164         56.6757         62.1507         13.3261     147.530E-03
           20165         56.4298         62.0041         13.6543    -48.4288E-09
           20166         57.1722         62.4455         12.6752     147.263E-03
           20167         56.9234         62.2992         13.0008    -35.3903E-09
           20168         57.6742         62.7398         12.0296     146.969E-03
           20169         57.4227         62.5937         12.3526    -35.3903E-09
           20170         58.1813         63.0334         11.3896     146.640E-03
           20171         57.9273         62.8877         11.7098    -35.3903E-09
           20172         58.6929         63.3263         10.7556     146.276E-03
           20173         58.4367         63.1810         11.0728    -35.3903E-09
           20174         59.2083         63.6184         10.1278     145.876E-03
           20175         58.9503         63.4735         10.4419    -31.6650E-09
           20176         59.7271         63.9097         9.50652     145.444E-03
           20177         59.4675         63.7653         9.81735    -29.8023E-09
           20178         60.2487         64.2001         8.89221     144.985E-03
           20179         59.9878         64.0562         9.19959    -24.2144E-09
           20180         60.7726         64.4896         8.28521     144.506E-03
           20181         60.5107         64.3463         8.58895    -27.9397E-09
           20182         61.2981         64.7781         7.68587     144.018E-03
           20183         61.0355         64.6353         7.98578    -24.2144E-09
           20184         61.8249         65.0656         7.09456     143.530E-03
           20185         61.5618         64.9234         7.39046    -20.4891E-09
           20186         62.3524         65.3521         6.51163     143.054E-03
           20187         62.0891         65.2105         6.80333    -24.2144E-09
           20188         62.8801         65.6378         5.93741     142.604E-03
           20189         62.6168         65.4967         6.22474    -24.2144E-09
           20190         63.4078         65.9225         5.37222     142.193E-03
           20191         63.1447         65.7820         5.65502    -18.6265E-09
           20192         63.9350         66.2065         4.81637     141.835E-03
           20193         63.6723         66.0665         5.09448    -22.3517E-09
           20194         64.4614         66.4898         4.27014     141.545E-03
           20195         64.1993         66.3503         4.54340    -22.3517E-09
           20196         64.9867         66.7726         3.73378     141.337E-03
           20197         64.7253         66.6335         4.00206    -26.0770E-09
           20198         65.5107         67.0551         3.20753     141.226E-03
           20199         65.2502         66.9163         3.47071    -18.6265E-09
           20200         66.0333         67.3375         2.69162     141.224E-03
           20201         65.7737         67.1989         2.94958    -24.2144E-09
           20202         66.5542         67.6200         2.18624     141.346E-03
           20203         66.2957         67.4815         2.43887    -24.2144E-09
           20204         67.0735         67.9028         1.69157     141.604E-03
           20205         66.8161         67.7644         1.93878    -26.0770E-09
           20206         67.5910         68.1864         1.20778     142.009E-03
           20207         67.3347         68.0477         1.44947    -26.0770E-09
           20208         68.1068         68.4709     735.000E-03     142.572E-03
           20209         67.8516         68.3319     971.106E-03    -24.2144E-09
           20210         68.6208         68.7566     273.377E-03     143.303E-03
           20211         68.3668         68.6173     503.822E-03    -27.9397E-09
           20212         69.1331         69.0441    -176.963E-03     144.210E-03
           20213         68.8802         68.9041     47.7526E-03    -33.5276E-09
           20214         69.6439         69.3335    -615.903E-03     145.302E-03
           20215         69.3921         69.1927    -396.979E-03    -29.8023E-09
           20216         70.1532         69.6252        -1.04333     146.585E-03
           20217         69.9023         69.4835    -830.256E-03    -44.7035E-09
           20218         70.6611         69.9198        -1.45912     148.063E-03
           20219         70.4112         69.7769        -1.25196    -40.9782E-09
           20220         71.1678         70.2175        -1.86315     149.742E-03
           20221         70.9189         70.0733        -1.66197    -46.5661E-09
           20222         71.6735         70.5187        -2.25531     151.624E-03
           20223         71.4253         70.3730        -2.06017    -50.2914E-09
           20224         72.1783         70.8239        -2.63544     153.711E-03
           20225         71.9309         70.6764        -2.44642    -50.2914E-09
           20226         72.6823         71.1335        -3.00341     156.004E-03
           20227         72.4356         70.9841        -2.82057    -52.1541E-09
           20228         73.1858         71.4479        -3.35903     158.503E-03
           20229         72.9397         71.2963        -3.18247    -68.9179E-09
           20230         73.6889         71.7675        -3.70213     161.206E-03
           20231         73.4433         71.6136        -3.53193    -74.5058E-09
           20232         74.1917         72.0927        -4.03247     164.111E-03
           20233         73.9466         71.9362        -3.86875    -74.5058E-09
           20234         74.6944         72.4239        -4.34982     167.215E-03
           20235         74.4496         72.2647        -4.19270    -72.6432E-09
           20236         75.1972         72.7615        -4.65390     170.514E-03
           20237         74.9527         72.5994        -4.50351    -83.8190E-09
           20238         75.6999         73.1059        -4.94440     174.003E-03
           20239         75.4557         72.9407        -4.80089    -87.5443E-09
           20240         76.2028         73.4575        -5.22096     177.675E-03
           20241         75.9589         73.2889        -5.08451    -100.583E-09
           20242         76.7059         73.8166        -5.48320     181.523E-03
           20243         76.4622         73.6445        -5.35400    -108.033E-09
           20244         77.2092         74.1835        -5.73066     185.541E-03
           20245         76.9657         74.0078        -5.60894    -111.759E-09
           20246         77.7125         74.5586        -5.96287     189.718E-03
           20247         77.4693         74.3791        -5.84885    -115.484E-09
           20248         78.2159         74.9423        -6.17928     194.047E-03
           20249         77.9730         74.7588        -6.07324    -128.523E-09
           20250         78.7192         75.3347        -6.37930     198.517E-03
           20251         78.4767         75.1471        -6.28153    -145.286E-09
           20252         79.2223         75.7362        -6.56227     203.117E-03
           20253         78.9802         75.5444        -6.47309    -150.874E-09
           20254         79.7248         76.1471        -6.72748     207.836E-03
           20255         79.4833         75.9509        -6.64723    -158.325E-09
           20256         80.2265         76.5674        -6.87414     212.660E-03
           20257         79.9857         76.3668        -6.80322    -176.951E-09
           20258         80.7272         76.9976        -7.00141     217.577E-03
           20259         80.4872         76.7924        -6.94023    -180.677E-09
           20260         81.2263         77.4376        -7.10835     222.573E-03
           20261         80.9874         77.2278        -7.05737    -193.715E-09
           20262         81.7234         77.8877        -7.19398     227.633E-03
           20263         81.4859         77.6732        -7.15369    -216.067E-09
           20264         82.2181         78.3479        -7.25722     232.741E-03
           20265         81.9821         78.1287        -7.22815    -234.693E-09
           20266         82.7097         78.8184        -7.29690     237.880E-03
           20267         82.4755         78.5944        -7.27963    -238.419E-09
           20268         83.1975         79.2992        -7.31179     243.035E-03
           20269         82.9655         79.0704        -7.30692    -257.045E-09
           20270         83.6809         79.7904        -7.30056     248.185E-03
           20271         83.4514         79.5567        -7.30875    -260.770E-09
           20272         84.1591         80.2917        -7.26177     253.312E-03
           20273         83.9325         80.0533        -7.28372    -283.122E-09
           20274         84.6311         80.8033        -7.19390     258.395E-03
           20275         84.4079         80.5601        -7.23037    -316.650E-09
           20276         85.0961         81.3250        -7.09534     263.413E-03
           20277         84.8767         81.0771        -7.14712    -331.551E-09
           20278         85.5530         81.8567        -6.96433     268.343E-03
           20279         85.3379         81.6041        -7.03230    -353.903E-09
           20280         86.0007         82.3981        -6.79906     273.161E-03
           20281         85.7905         82.1410        -6.88410    -365.078E-09
           20282         86.4382         82.9490        -6.59756     277.842E-03
           20283         86.2333         82.6875        -6.70065    -387.430E-09
           20284         86.8640         83.5091        -6.35775     282.360E-03
           20285         86.6653         83.2434        -6.47990    -417.233E-09
           20286         87.2770         84.0781        -6.07743     286.685E-03
           20287         87.0849         83.8083        -6.21974    -439.584E-09
           20288         87.6758         84.6555        -5.75426     290.789E-03
           20289         87.4911         84.3819        -5.91789    -469.387E-09
           20290         88.0588         85.2408        -5.38579     294.638E-03
           20291         87.8822         84.9636        -5.57194    -488.013E-09
           20292         88.4246         85.8336        -4.96938     298.200E-03
           20293         88.2568         85.5531        -5.17936    -521.541E-09
           20294         88.7715         86.4331        -4.50227     301.437E-03
           20295         88.6134         86.1496        -4.73744    -558.794E-09
           20296         89.0979         87.0388        -3.98153     304.313E-03
           20297         88.9502         86.7526        -4.24333    -577.420E-09
           20298         89.4021         87.6499        -3.40408     306.786E-03
           20299         89.2658         87.3614        -3.69404    -610.948E-09
           20300         89.6823         88.2654        -2.76664     308.812E-03
           20301         89.5582         87.9751        -3.08637    -625.849E-09
           20302         89.9368         88.8845        -2.06576     310.346E-03
           20303         89.8257         88.5928        -2.41697    -655.651E-09
           20304         90.1637         89.5062        -1.29779     311.337E-03
           20305         90.0665         89.2136        -1.68227    -685.453E-09
           20306         90.3611         90.1292    -458.876E-03     311.731E-03
           20307         90.2788         89.8363    -878.524E-03    -707.805E-09
           20308         90.5273         90.7524     455.062E-03     311.473E-03
           20309         90.4607         90.4598    -1.77181E-03    -748.783E-09
           20310         90.6605         91.3744         1.44831     310.502E-03
           20311         90.6105         91.0828     952.181E-03    -774.860E-09
           20312         90.7589         91.9936         2.52542     308.751E-03
           20313         90.7263         91.7038         1.98775    -793.487E-09
           20314         90.8208         92.6086         3.69117     306.152E-03
           20315         90.8064         92.3213         3.10960    -800.937E-09
           20316         90.8448         93.2174         4.95065     302.630E-03
           20317         90.8493         92.9335         4.32268    -827.014E-09
           20318         90.8295         93.8182         6.30919     298.106E-03
           20319         90.8536         93.5387         5.63219    -838.190E-09
           20320         90.7739         94.4088         7.77246     292.493E-03
           20321         90.8181         94.1348         7.04364    -830.740E-09
           20322         90.6773         94.9871         9.34640     285.702E-03
           20323         90.7417         94.7196         8.56284    -830.740E-09
           20324         90.5392         95.5506         11.0373     277.635E-03
           20325         90.6241         95.2908         10.1959    -812.113E-09
           20326         90.3599         96.0965         12.8519     268.189E-03
           20327         90.4650         95.8459         11.9494    -797.212E-09
           20328         90.1402         96.6221         14.7972     257.255E-03
           20329         90.2651         96.3820         13.8300    -763.685E-09
           20330         89.8819         97.1243         16.8805     244.716E-03
           20331         90.0255         96.8961         15.8451    -718.981E-09
           20332         89.5875         97.5997         19.1098     230.447E-03
           20333         89.7485         97.3852         18.0023    -663.102E-09
           20334         89.2611         98.0447         21.4933     214.320E-03
           20335         89.4374         97.8457         20.3097    -596.046E-09
           20336         88.9081         98.4554         24.0397     196.196E-03
           20337         89.0967         98.2738         22.7756    -512.227E-09
           20338         88.5358         98.8279         26.7583     175.930E-03
           20339         88.7328         98.6656         25.4091    -419.095E-09
           20340         88.1535         99.1575         29.6586     153.368E-03
           20341         88.3542         99.0168         28.2197    -346.452E-09
           20342         87.7734         99.4396         32.7509     128.352E-03
           20343         87.9714         99.3229         31.2173    -257.045E-09
           20344         87.4105         99.6691         36.0461     100.714E-03
           20345         87.5980         99.5788         34.4124    -187.196E-09
           20346         87.0836         99.8405         39.5553     70.2805E-03
           20347         87.2509         99.7794         37.8160    -125.729E-09
           20348         86.8153         99.9482         43.2906     36.8685E-03
           20349         86.9508         99.9190         41.4397    -74.5058E-09
           20350         86.6330         99.9856         47.2649     272.033E-06
           20351         86.7228         99.9917         45.2958    -8.61473E-09
           20352         53.8397         60.3714         17.3356    -149.185E-03
           20353         53.6168         60.2211         17.6782    -298.830E-03
           20354         53.3944         60.0726         18.0213    -149.646E-03
           20355         54.2934         60.6693         16.6551    -148.816E-03
           20356         54.0663         60.5195         16.9952    -298.001E-03
           20357         54.7551         60.9667         15.9796    -148.512E-03
           20358         54.5240         60.8171         16.3172    -297.328E-03
           20359         55.2246         61.2634         15.3090    -148.251E-03
           20360         54.9896         61.1141         15.6442    -296.763E-03
           20361         55.7015         61.5597         14.6431    -148.011E-03
           20362         55.4628         61.4106         14.9760    -296.261E-03
           20363         56.1853         61.8554         13.9822    -147.775E-03
           20364         55.9431         61.7066         14.3125    -295.786E-03
           20365         56.6757         62.1507         13.3261    -147.530E-03
           20366         56.4303         62.0021         13.6540    -295.305E-03
           20367         57.1722         62.4455         12.6752    -147.264E-03
           20368         56.9237         62.2971         13.0005    -294.793E-03
           20369         57.6742         62.7398         12.0296    -146.969E-03
           20370         57.4229         62.5916         12.3523    -294.232E-03
           20371         58.1813         63.0334         11.3896    -146.640E-03
           20372         57.9275         62.8854         11.7095    -293.609E-03
           20373         58.6929         63.3263         10.7556    -146.276E-03
           20374         58.4368         63.1787         11.0724    -292.916E-03
           20375         59.2083         63.6184         10.1278    -145.876E-03
           20376         58.9503         63.4711         10.4415    -292.152E-03
           20377         59.7271         63.9097         9.50652    -145.444E-03
           20378         59.4674         63.7628         9.81693    -291.320E-03
           20379         60.2487         64.2001         8.89221    -144.985E-03
           20380         59.9875         64.0536         9.19914    -290.429E-03
           20381         60.7726         64.4896         8.28520    -144.506E-03
           20382         60.5102         64.3435         8.58847    -289.491E-03
           20383         61.2981         64.7781         7.68587    -144.018E-03
           20384         61.0348         64.6324         7.98530    -288.524E-03
           20385         61.8249         65.0656         7.09456    -143.530E-03
           20386         61.5609         64.9203         7.38997    -287.547E-03
           20387         62.3524         65.3521         6.51163    -143.054E-03
           20388         62.0879         65.2072         6.80286    -286.583E-03
           20389         62.8801         65.6378         5.93741    -142.604E-03
           20390         62.6154         65.4932         6.22430    -285.658E-03
           20391         63.4078         65.9225         5.37222    -142.193E-03
           20392         63.1431         65.7782         5.65461    -284.796E-03
           20393         63.9350         66.2065         4.81637    -141.835E-03
           20394         63.6704         66.0625         5.09412    -284.028E-03
           20395         64.4614         66.4898         4.27014    -141.545E-03
           20396         64.1970         66.3460         4.54311    -283.380E-03
           20397         64.9867         66.7726         3.73378    -141.337E-03
           20398         64.7227         66.6289         4.00186    -282.882E-03
           20399         65.5107         67.0551         3.20753    -141.226E-03
           20400         65.2472         66.9114         3.47060    -282.563E-03
           20401         66.0333         67.3375         2.69162    -141.224E-03
           20402         65.7703         67.1937         2.94958    -282.450E-03
           20403         66.5542         67.6200         2.18624    -141.346E-03
           20404         66.2919         67.4760         2.43900    -282.570E-03
           20405         67.0735         67.9028         1.69157    -141.604E-03
           20406         66.8118         67.7585         1.93904    -282.950E-03
           20407         67.5910         68.1864         1.20778    -142.009E-03
           20408         67.3300         68.0415         1.44988    -283.612E-03
           20409         68.1068         68.4709     735.000E-03    -142.572E-03
           20410         67.8465         68.3253     971.671E-03    -284.580E-03
           20411         68.6208         68.7566     273.377E-03    -143.303E-03
           20412         68.3611         68.6102     504.555E-03    -285.874E-03
           20413         69.1331         69.0440    -176.963E-03    -144.210E-03
           20414         68.8741         68.8966     48.6619E-03    -287.513E-03
           20415         69.6439         69.3335    -615.903E-03    -145.302E-03
           20416         69.3854         69.1848    -395.886E-03    -289.513E-03
           20417         70.1532         69.6252        -1.04333    -146.585E-03
           20418         69.8952         69.4752    -828.972E-03    -291.887E-03
           20419         70.6611         69.9198        -1.45912    -148.063E-03
           20420         70.4035         69.7681        -1.25048    -294.648E-03
           20421         71.1678         70.2175        -1.86315    -149.742E-03
           20422         70.9106         70.0640        -1.66029    -297.805E-03
           20423         71.6735         70.5187        -2.25531    -151.624E-03
           20424         71.4165         70.3632        -2.05829    -301.366E-03
           20425         72.1783         70.8239        -2.63544    -153.711E-03
           20426         71.9215         70.6662        -2.44433    -305.335E-03
           20427         72.6823         71.1335        -3.00341    -156.004E-03
           20428         72.4256         70.9734        -2.81828    -309.715E-03
           20429         73.1858         71.4479        -3.35903    -158.503E-03
           20430         72.9292         71.2851        -3.17997    -314.507E-03
           20431         73.6889         71.7675        -3.70213    -161.206E-03
           20432         73.4322         71.6019        -3.52923    -319.709E-03
           20433         74.1917         72.0927        -4.03247    -164.111E-03
           20434         73.9349         71.9240        -3.86584    -325.317E-03
           20435         74.6944         72.4239        -4.34982    -167.216E-03
           20436         74.4374         72.2519        -4.18959    -331.327E-03
           20437         75.1972         72.7615        -4.65390    -170.514E-03
           20438         74.9399         72.5861        -4.50021    -337.730E-03
           20439         75.6999         73.1059        -4.94440    -174.003E-03
           20440         75.4424         72.9268        -4.79741    -344.517E-03
           20441         76.2028         73.4575        -5.22096    -177.675E-03
           20442         75.9449         73.2745        -5.08084    -351.678E-03
           20443         76.7059         73.8166        -5.48320    -181.523E-03
           20444         76.4477         73.6295        -5.35015    -359.198E-03
           20445         77.2092         74.1835        -5.73066    -185.541E-03
           20446         76.9506         73.9923        -5.60492    -367.064E-03
           20447         77.7125         74.5586        -5.96287    -189.719E-03
           20448         77.4536         74.3630        -5.84468    -375.259E-03
           20449         78.2159         74.9423        -6.17928    -194.048E-03
           20450         77.9568         74.7421        -6.06891    -383.766E-03
           20451         78.7192         75.3347        -6.37930    -198.518E-03
           20452         78.4599         75.1298        -6.27706    -392.565E-03
           20453         79.2223         75.7362        -6.56227    -203.118E-03
           20454         78.9628         75.5265        -6.46849    -401.635E-03
           20455         79.7248         76.1471        -6.72748    -207.836E-03
           20456         79.4653         75.9324        -6.64252    -410.953E-03
           20457         80.2265         76.5674        -6.87414    -212.660E-03
           20458         79.9672         76.3477        -6.79840    -420.496E-03
           20459         80.7272         76.9976        -7.00141    -217.577E-03
           20460         80.4682         76.7726        -6.93531    -430.237E-03
           20461         81.2263         77.4376        -7.10835    -222.573E-03
           20462         80.9678         77.2074        -7.05238    -440.150E-03
           20463         81.7234         77.8877        -7.19398    -227.633E-03
           20464         81.4657         77.6521        -7.14863    -450.206E-03
           20465         82.2181         78.3479        -7.25722    -232.741E-03
           20466         81.9614         78.1070        -7.22304    -460.374E-03
           20467         82.7097         78.8184        -7.29690    -237.881E-03
           20468         82.4543         78.5720        -7.27449    -470.622E-03
           20469         83.1975         79.2992        -7.31179    -243.035E-03
           20470         82.9438         79.0473        -7.30177    -480.916E-03
           20471         83.6809         79.7904        -7.30056    -248.185E-03
           20472         83.4292         79.5329        -7.30360    -491.220E-03
           20473         84.1591         80.2917        -7.26177    -253.312E-03
           20474         83.9097         80.0288        -7.27860    -501.497E-03
           20475         84.6311         80.8033        -7.19390    -258.395E-03
           20476         84.3846         80.5350        -7.22529    -511.707E-03
           20477         85.0961         81.3250        -7.09533    -263.413E-03
           20478         84.8529         81.0513        -7.14211    -521.808E-03
           20479         85.5530         81.8567        -6.96433    -268.344E-03
           20480         85.3136         81.5776        -7.02737    -531.757E-03
           20481         86.0007         82.3981        -6.79906    -273.162E-03
           20482         85.7657         82.1138        -6.87929    -541.505E-03
           20483         86.4382         82.9490        -6.59756    -277.843E-03
           20484         86.2081         82.6596        -6.69597    -551.005E-03
           20485         86.8640         83.5091        -6.35775    -282.361E-03
           20486         86.6395         83.2147        -6.47539    -560.203E-03
           20487         87.2770         84.0781        -6.07743    -286.686E-03
           20488         87.0587         83.7789        -6.21542    -569.046E-03
           20489         87.6758         84.6555        -5.75426    -290.790E-03
           20490         87.4643         84.3516        -5.91379    -577.475E-03
           20491         88.0588         85.2408        -5.38579    -294.639E-03
           20492         87.8550         84.9326        -5.56810    -585.428E-03
           20493         88.4246         85.8336        -4.96938    -298.201E-03
           20494         88.2291         85.5213        -5.17580    -592.839E-03
           20495         88.7715         86.4331        -4.50227    -301.439E-03
           20496         88.5852         86.1171        -4.73420    -599.638E-03
           20497         89.0979         87.0388        -3.98153    -304.314E-03
           20498         88.9216         86.7193        -4.24046    -605.752E-03
           20499         89.4021         87.6499        -3.40408    -306.787E-03
           20500         89.2366         87.3273        -3.69157    -611.101E-03
           20501         89.6823         88.2654        -2.76664    -308.814E-03
           20502         89.5286         87.9402        -3.08435    -615.600E-03
           20503         89.9368         88.8845        -2.06576    -310.347E-03
           20504         89.7956         88.5571        -2.41544    -619.160E-03
           20505         90.1637         89.5062        -1.29779    -311.338E-03
           20506         90.0360         89.1771        -1.68128    -621.684E-03
           20507         90.3611         90.1292    -458.876E-03    -311.733E-03
           20508         90.2478         89.7990    -878.134E-03    -623.070E-03
           20509         90.5273         90.7524     455.062E-03    -311.475E-03
           20510         90.4292         90.4218    -2.03520E-03    -623.207E-03
           20511         90.6605         91.3744         1.44831    -310.503E-03
           20512         90.5785         91.0440     951.203E-03    -621.977E-03
           20513         90.7589         91.9936         2.52542    -308.753E-03
           20514         90.6938         91.6642         1.98599    -619.255E-03
           20515         90.8208         92.6086         3.69117    -306.154E-03
           20516         90.7735         92.2809         3.10700    -614.906E-03
           20517         90.8448         93.2174         4.95065    -302.632E-03
           20518         90.8160         92.8924         4.31915    -608.785E-03
           20519         90.8295         93.8182         6.30919    -298.108E-03
           20520         90.8198         93.4968         5.62766    -600.739E-03
           20521         90.7739         94.4088         7.77246    -292.495E-03
           20522         90.7838         94.0922         7.03802    -590.602E-03
           20523         90.6773         94.9871         9.34640    -285.704E-03
           20524         90.7070         94.6763         8.55604    -578.198E-03
           20525         90.5392         95.5506         11.0373    -277.637E-03
           20526         90.5889         95.2468         10.1878    -563.340E-03
           20527         90.3599         96.0965         12.8519    -268.191E-03
           20528         90.4294         95.8012         11.9399    -545.827E-03
           20529         90.1402         96.6221         14.7972    -257.257E-03
           20530         90.2290         96.3367         13.8191    -525.447E-03
           20531         89.8819         97.1243         16.8805    -244.717E-03
           20532         89.9889         96.8502         15.8326    -501.973E-03
           20533         89.5875         97.5997         19.1098    -230.449E-03
           20534         89.7114         97.3387         17.9881    -475.165E-03
           20535         89.2611         98.0447         21.4933    -214.321E-03
           20536         89.3998         97.7987         20.2935    -444.769E-03
           20537         88.9081         98.4554         24.0397    -196.197E-03
           20538         89.0586         98.2263         22.7575    -410.517E-03
           20539         88.5358         98.8279         26.7583    -175.930E-03
           20540         88.6942         98.6177         25.3889    -372.127E-03
           20541         88.1535         99.1575         29.6586    -153.369E-03
           20542         88.3150         98.9685         28.1971    -329.298E-03
           20543         87.7734         99.4396         32.7509    -128.353E-03
           20544         87.9317         99.2742         31.1923    -281.721E-03
           20545         87.4105         99.6691         36.0461    -100.715E-03
           20546         87.5577         99.5299         34.3847    -229.067E-03
           20547         87.0836         99.8405         39.5553    -70.2807E-03
           20548         87.2101         99.7302         37.7855    -170.995E-03
           20549         86.8153         99.9482         43.2906    -36.8686E-03
           20550         86.9094         99.8697         41.4063    -107.148E-03
           20551         86.6330         99.9856         47.2649    -271.999E-06
           20552         86.6808         99.9423         45.2592    -37.1516E-03
           20553         53.8415         60.3678         17.3348    -447.507E-03
           20554         53.6196         60.2158         17.6768    -597.560E-03
           20555         53.3964         60.0691         18.0203    -448.886E-03
           20556         54.2950         60.6657         16.6545    -446.404E-03
           20557         54.0688         60.5141         16.9941    -595.910E-03
           20558         54.7565         60.9629         15.9791    -445.494E-03
           20559         54.5262         60.8116         16.3163    -594.570E-03
           20560         55.2258         61.2596         15.3085    -444.709E-03
           20561         54.9916         61.1085         15.6434    -593.440E-03
           20562         55.7025         61.5558         14.6427    -443.986E-03
           20563         55.4645         61.4048         14.9752    -592.434E-03
           20564         56.1862         61.8514         13.9817    -443.275E-03
           20565         55.9446         61.7007         14.3118    -591.476E-03
           20566         56.6765         62.1466         13.3256    -442.533E-03
           20567         56.4315         61.9960         13.6533    -590.503E-03
           20568         57.1728         62.4413         12.6746    -441.726E-03
           20569         56.9247         62.2909         12.9997    -589.466E-03
           20570         57.6747         62.7354         12.0290    -440.832E-03
           20571         57.4237         62.5851         12.3514    -588.327E-03
           20572         58.1815         63.0288         11.3890    -439.835E-03
           20573         57.9280         62.8788         11.7085    -587.059E-03
           20574         58.6929         63.3216         10.7548    -438.729E-03
           20575         58.4370         63.1718         11.0713    -585.649E-03
           20576         59.2081         63.6135         10.1269    -437.516E-03
           20577         58.9501         63.4639         10.4403    -584.093E-03
           20578         59.7266         63.9046         9.50562    -436.204E-03
           20579         59.4668         63.7553         9.81562    -582.400E-03
           20580         60.2479         64.1947         8.89126    -434.811E-03
           20581         59.9865         64.0457         9.19775    -580.587E-03
           20582         60.7714         64.4839         8.28423    -433.359E-03
           20583         60.5087         64.3351         8.58702    -578.678E-03
           20584         61.2965         64.7720         7.68488    -431.875E-03
           20585         61.0328         64.6235         7.98382    -576.709E-03
           20586         61.8229         65.0592         7.09359    -430.392E-03
           20587         61.5582         64.9109         7.38850    -574.720E-03
           20588         62.3499         65.3453         6.51069    -428.946E-03
           20589         62.0845         65.1973         6.80142    -572.755E-03
           20590         62.8771         65.6305         5.93654    -427.577E-03
           20591         62.6113         65.4826         6.22293    -570.866E-03
           20592         63.4042         65.9147         5.37144    -426.325E-03
           20593         63.1381         65.7670         5.65337    -569.106E-03
           20594         63.9307         66.1982         4.81571    -425.234E-03
           20595         63.6645         66.0504         5.09304    -567.532E-03
           20596         64.4565         66.4809         4.26963    -424.346E-03
           20597         64.1902         66.3331         4.54223    -566.200E-03
           20598         64.9811         66.7632         3.73345    -423.705E-03
           20599         64.7148         66.6152         4.00122    -565.169E-03
           20600         65.5043         67.0450         3.20741    -423.353E-03
           20601         65.2382         66.8968         3.47026    -564.495E-03
           20602         66.0261         67.3267         2.69173    -423.332E-03
           20603         65.7602         67.1781         2.94957    -564.235E-03
           20604         66.5462         67.6085         2.18661    -423.681E-03
           20605         66.2805         67.4593         2.43935    -564.443E-03
           20606         67.0646         67.8907         1.69223    -424.439E-03
           20607         66.7991         67.7407         1.93980    -565.170E-03
           20608         67.5812         68.1734         1.20874    -425.639E-03
           20609         67.3160         68.0226         1.45109    -566.465E-03
           20610         68.0960         68.4571     736.286E-03    -427.314E-03
           20611         67.8310         68.3053     973.352E-03    -568.372E-03
           20612         68.6090         68.7421     275.008E-03    -429.494E-03
           20613         68.3442         68.5890     506.740E-03    -570.933E-03
           20614         69.1204         69.0287    -174.970E-03    -432.204E-03
           20615         68.8557         68.8741     51.3772E-03    -574.184E-03
           20616         69.6301         69.3172    -613.534E-03    -435.467E-03
           20617         69.3654         69.1611    -392.618E-03    -578.159E-03
           20618         70.1383         69.6081        -1.04057    -439.303E-03
           20619         69.8736         69.4501    -825.132E-03    -582.884E-03
           20620         70.6451         69.9017        -1.45596    -443.728E-03
           20621         70.3804         69.7417        -1.24605    -588.383E-03
           20622         71.1507         70.1985        -1.85959    -448.754E-03
           20623         70.8858         70.0362        -1.65526    -594.676E-03
           20624         71.6553         70.4988        -2.25134    -454.389E-03
           20625         71.3901         70.3340        -2.05265    -601.777E-03
           20626         72.1590         70.8030        -2.63107    -460.641E-03
           20627         71.8934         70.6356        -2.43808    -609.695E-03
           20628         72.6619         71.1116        -2.99862    -467.510E-03
           20629         72.3958         70.9413        -2.81141    -618.436E-03
           20630         73.1642         71.4250        -3.35383    -474.998E-03
           20631         72.8977         71.2515        -3.17248    -628.001E-03
           20632         73.6662         71.7436        -3.69652    -483.098E-03
           20633         73.3990         71.5667        -3.52112    -638.387E-03
           20634         74.1678         72.0677        -4.02646    -491.806E-03
           20635         73.8999         71.8873        -3.85714    -649.587E-03
           20636         74.6694         72.3979        -4.34342    -501.110E-03
           20637         74.4007         72.2136        -4.18029    -661.589E-03
           20638         75.1710         72.7344        -4.64712    -510.998E-03
           20639         74.9015         72.5462        -4.49032    -674.379E-03
           20640         75.6726         73.0777        -4.93724    -521.455E-03
           20641         75.4022         72.8853        -4.78695    -687.936E-03
           20642         76.1743         73.4281        -5.21344    -532.463E-03
           20643         75.9031         73.2313        -5.06983    -702.241E-03
           20644         76.6763         73.7861        -5.47533    -544.000E-03
           20645         76.4041         73.5846        -5.33861    -717.265E-03
           20646         77.1784         74.1519        -5.72247    -556.045E-03
           20647         76.9053         73.9457        -5.59287    -732.981E-03
           20648         77.6806         74.5258        -5.95436    -568.570E-03
           20649         77.4066         74.3147        -5.83215    -749.355E-03
           20650         78.1829         74.9083        -6.17048    -581.548E-03
           20651         77.9080         74.6920        -6.05593    -766.352E-03
           20652         78.6850         75.2995        -6.37023    -594.950E-03
           20653         78.4095         75.0780        -6.26366    -783.933E-03
           20654         79.1870         75.6998        -6.55295    -608.741E-03
           20655         78.9107         75.4728        -6.45470    -802.056E-03
           20656         79.6884         76.1094        -6.71794    -622.888E-03
           20657         79.4116         75.8769        -6.62837    -820.675E-03
           20658         80.1890         76.5286        -6.86440    -637.352E-03
           20659         79.9118         76.2903        -6.78393    -839.744E-03
           20660         80.6886         76.9574        -6.99149    -652.095E-03
           20661         80.4111         76.7134        -6.92057    -859.209E-03
           20662         81.1866         77.3962        -7.09829    -667.073E-03
           20663         80.9091         77.1462        -7.03740    -879.018E-03
           20664         81.6827         77.8450        -7.18381    -682.244E-03
           20665         81.4054         77.5890        -7.13346    -899.111E-03
           20666         82.1763         78.3039        -7.24696    -697.559E-03
           20667         81.8995         78.0419        -7.20773    -919.429E-03
           20668         82.6668         78.7731        -7.28660    -712.970E-03
           20669         82.3908         78.5049        -7.25908    -939.907E-03
           20670         83.1536         79.2525        -7.30149    -728.423E-03
           20671         82.8787         78.9782        -7.28632    -960.477E-03
           20672         83.6360         79.7422        -7.29028    -743.865E-03
           20673         83.3626         79.4618        -7.28816    -981.068E-03
           20674         84.1131         80.2422        -7.25155    -759.237E-03
           20675         83.8416         79.9557        -7.26323        -1.00160
           20676         84.5841         80.7524        -7.18380    -774.477E-03
           20677         84.3149         80.4597        -7.21005        -1.02201
           20678         85.0481         81.2727        -7.08538    -789.523E-03
           20679         84.7816         80.9739        -7.12707        -1.04219
           20680         85.5040         81.8029        -6.95458    -804.305E-03
           20681         85.2409         81.4980        -7.01259        -1.06207
           20682         85.9507         82.3429        -6.78955    -818.751E-03
           20683         85.6915         82.0320        -6.86484        -1.08155
           20684         86.3872         82.8923        -6.58835    -832.787E-03
           20685         86.1323         82.5756        -6.68193        -1.10053
           20686         86.8121         83.4509        -6.34889    -846.332E-03
           20687         86.5623         83.1285        -6.46185        -1.11892
           20688         87.2241         84.0184        -6.06899    -859.301E-03
           20689         86.9800         83.6904        -6.20246        -1.13659
           20690         87.6218         84.5942        -5.74630    -871.604E-03
           20691         87.3842         84.2610        -5.90149        -1.15343
           20692         88.0039         85.1780        -5.37836    -883.146E-03
           20693         87.7734         84.8397        -5.55656        -1.16932
           20694         88.3687         85.7693        -4.96257    -893.825E-03
           20695         88.1460         85.4260        -5.16513        -1.18413
           20696         88.7147         86.3673        -4.49614    -903.534E-03
           20697         88.5007         86.0195        -4.72450        -1.19772
           20698         89.0401         86.9714        -3.97617    -912.157E-03
           20699         88.8357         86.6194        -4.23185        -1.20994
           20700         89.3434         87.5809        -3.39957    -919.573E-03
           20701         89.1493         87.2250        -3.68417        -1.22063
           20702         89.6227         88.1948        -2.76307    -925.651E-03
           20703         89.4398         87.8355        -3.07828        -1.22962
           20704         89.8762         88.8124        -2.06322    -930.251E-03
           20705         89.7054         88.4501        -2.41085        -1.23674
           20706         90.1021         89.4324        -1.29639    -933.224E-03
           20707         89.9443         89.0677        -1.67832        -1.24179
           20708         90.2986         90.0539    -458.719E-03    -934.410E-03
           20709         90.1547         89.6873    -876.962E-03        -1.24456
           20710         90.4639         90.6755     453.855E-03    -933.641E-03
           20711         90.3348         90.3077    -2.82110E-03        -1.24484
           20712         90.5961         91.2959         1.44561    -930.732E-03
           20713         90.4827         90.9275     948.277E-03        -1.24240
           20714         90.6936         91.9137         2.52109    -925.489E-03
           20715         90.5966         91.5454         1.98073        -1.23697
           20716         90.7546         92.5271         3.68508    -917.703E-03
           20717         90.6749         92.1598         3.09919        -1.22829
           20718         90.7776         93.1344         4.94263    -907.151E-03
           20719         90.7160         92.7690         4.30857        -1.21607
           20720         90.7615         93.7337         6.29909    -893.593E-03
           20721         90.7184         93.3712         5.61407        -1.20000
           20722         90.7049         94.3229         7.76009    -876.774E-03
           20723         90.6810         93.9644         7.02117        -1.17976
           20724         90.6073         94.8998         9.33159    -856.422E-03
           20725         90.6028         94.5464         8.53565        -1.15500
           20726         90.4683         95.4619         11.0199    -832.246E-03
           20727         90.4833         95.1149         10.1636        -1.12533
           20728         90.2881         96.0066         12.8316    -803.937E-03
           20729         90.3224         95.6673         11.9116        -1.09036
           20730         90.0674         96.5309         14.7738    -771.165E-03
           20731         90.1205         96.2008         13.7863        -1.04966
           20732         89.8081         97.0319         16.8538    -733.582E-03
           20733         89.8791         96.7126         15.7950        -1.00277
           20734         89.5128         97.5062         19.0795    -690.817E-03
           20735         89.6001         97.1994         17.9452    -949.234E-03
           20736         89.1855         97.9502         21.4591    -642.478E-03
           20737         89.2870         97.6577         20.2451    -888.525E-03
           20738         88.8314         98.3601         24.0014    -588.152E-03
           20739         88.9443         98.0839         22.7031    -820.112E-03
           20740         88.4580         98.7317         26.7155    -527.403E-03
           20741         88.5784         98.4740         25.3281    -743.428E-03
           20742         88.0747         99.0606         29.6111    -459.774E-03
           20743         88.1976         98.8237         28.1295    -657.878E-03
           20744         87.6935         99.3420         32.6984    -384.784E-03
           20745         87.8127         99.1284         31.1172    -562.836E-03
           20746         87.3295         99.5710         35.9881    -301.932E-03
           20747         87.4371         99.3832         34.3018    -457.648E-03
           20748         87.0014         99.7421         39.4916    -210.694E-03
           20749         87.0877         99.5829         37.6942    -341.630E-03
           20750         86.7319         99.8495         43.2207    -110.528E-03
           20751         86.7852         99.7219         41.3060    -214.068E-03
           20752         86.5484         99.8869         47.1885    -814.466E-06
           20753         86.5548         99.7943         45.1494    -74.2266E-03
           20754         53.8450         60.3608         17.3332    -745.688E-03
           20755         53.6243         60.2072         17.6745    -896.093E-03
           20756         53.4003         60.0622         18.0182    -747.971E-03
           20757         54.2981         60.6585         16.6532    -743.860E-03
           20758         54.0730         60.5052         16.9922    -893.638E-03
           20759         54.7593         60.9555         15.9780    -742.348E-03
           20760         54.5300         60.8025         16.3148    -891.639E-03
           20761         55.2283         61.2520         15.3075    -741.037E-03
           20762         54.9949         61.0991         15.6421    -889.946E-03
           20763         55.7047         61.5480         14.6417    -739.825E-03
           20764         55.4674         61.3952         14.9740    -888.429E-03
           20765         56.1881         61.8435         13.9807    -738.625E-03
           20766         55.9472         61.6909         14.3106    -886.975E-03
           20767         56.6780         62.1385         13.3246    -737.368E-03
           20768         56.4337         61.9860         13.6520    -885.490E-03
           20769         57.1740         62.4329         12.6735    -735.998E-03
           20770         56.9265         62.2806         12.9983    -883.900E-03
           20771         57.6755         62.7267         12.0277    -734.475E-03
           20772         57.4251         62.5745         12.3498    -882.146E-03
           20773         58.1820         63.0199         11.3875    -732.776E-03
           20774         57.9289         62.8678         11.7068    -880.192E-03
           20775         58.6929         63.3122         10.7533    -730.889E-03
           20776         58.4373         63.1603         11.0695    -878.016E-03
           20777         59.2077         63.6037         10.1252    -728.820E-03
           20778         58.9499         63.4520         10.4382    -875.616E-03
           20779         59.7256         63.8943         9.50379    -726.583E-03
           20780         59.4660         63.7428         9.81339    -873.002E-03
           20781         60.2463         64.1839         8.88934    -724.206E-03
           20782         59.9849         64.0326         9.19538    -870.203E-03
           20783         60.7691         64.4725         8.28224    -721.728E-03
           20784         60.5063         64.3213         8.58456    -867.256E-03
           20785         61.2935         64.7600         7.68287    -719.196E-03
           20786         61.0294         64.6089         7.98130    -864.215E-03
           20787         61.8189         65.0463         7.09160    -716.664E-03
           20788         61.5538         64.8954         7.38598    -861.140E-03
           20789         62.3449         65.3317         6.50878    -714.192E-03
           20790         62.0790         65.1808         6.79896    -858.101E-03
           20791         62.8711         65.6159         5.93476    -711.848E-03
           20792         62.6045         65.4650         6.22060    -855.175E-03
           20793         63.3970         65.8992         5.36985    -709.700E-03
           20794         63.1299         65.7482         5.65123    -852.442E-03
           20795         63.9223         66.1816         4.81436    -707.819E-03
           20796         63.6548         66.0304         5.09117    -849.987E-03
           20797         64.4467         66.4632         4.26858    -706.279E-03
           20798         64.1788         66.3117         4.54070    -847.898E-03
           20799         64.9699         66.7443         3.73275    -705.151E-03
           20800         64.7017         66.5924         4.00011    -846.262E-03
           20801         65.4916         67.0249         3.20713    -704.508E-03
           20802         65.2233         66.8724         3.46963    -845.164E-03
           20803         66.0118         67.3053         2.69192    -704.417E-03
           20804         65.7433         67.1521         2.94949    -844.689E-03
           20805         66.5302         67.5857         2.18732    -704.946E-03
           20806         66.2615         67.4316         2.43989    -844.919E-03
           20807         67.0468         67.8663         1.69350    -706.156E-03
           20808         66.7780         67.7113         1.94103    -845.931E-03
           20809         67.5615         68.1476         1.21063    -708.107E-03
           20810         67.2926         67.9913         1.45305    -847.798E-03
           20811         68.0744         68.4297     738.832E-03    -710.853E-03
           20812         67.8052         68.2720     976.108E-03    -850.587E-03
           20813         68.5855         68.7130     278.245E-03    -714.441E-03
           20814         68.3160         68.5537     510.337E-03    -854.360E-03
           20815         69.0948         68.9979    -171.009E-03    -718.916E-03
           20816         68.8250         68.8368     55.8602E-03    -859.172E-03
           20817         69.6024         69.2847    -608.821E-03    -724.314E-03
           20818         69.3322         69.1216    -387.211E-03    -865.071E-03
           20819         70.1085         69.5738        -1.03508    -730.669E-03
           20820         69.8378         69.4084    -818.770E-03    -872.099E-03
           20821         70.6132         69.8656        -1.44968    -738.007E-03
           20822         70.3418         69.6978        -1.23871    -880.292E-03
           20823         71.1166         70.1605        -1.85250    -746.348E-03
           20824         70.8445         69.9900        -1.64692    -889.678E-03
           20825         71.6190         70.4589        -2.24343    -755.707E-03
           20826         71.3461         70.2854        -2.04328    -900.278E-03
           20827         72.1204         70.7612        -2.62233    -766.094E-03
           20828         71.8465         70.5845        -2.42768    -912.106E-03
           20829         72.6210         71.0678        -2.98906    -777.513E-03
           20830         72.3462         70.8878        -2.79998    -925.170E-03
           20831         73.1211         71.3792        -3.34345    -789.961E-03
           20832         72.8451         71.1955        -3.16003    -939.472E-03
           20833         73.6207         71.6957        -3.68532    -803.433E-03
           20834         73.3436         71.5082        -3.50765    -955.006E-03
           20835         74.1201         72.0177        -4.01446    -817.917E-03
           20836         73.8417         71.8261        -3.84265    -971.763E-03
           20837         74.6194         72.3457        -4.33063    -833.396E-03
           20838         74.3396         72.1499        -4.16481    -989.723E-03
           20839         75.1186         72.6801        -4.63356    -849.849E-03
           20840         74.8374         72.4797        -4.47387        -1.00887
           20841         75.6179         73.0212        -4.92294    -867.249E-03
           20842         75.3353         72.8161        -4.76955        -1.02916
           20843         76.1174         73.3694        -5.19842    -885.568E-03
           20844         75.8333         73.1594        -5.05152        -1.05058
           20845         76.6170         73.7251        -5.45961    -904.770E-03
           20846         76.3314         73.5099        -5.31941        -1.07307
           20847         77.1168         74.0886        -5.70609    -924.816E-03
           20848         76.8298         73.8681        -5.57283        -1.09660
           20849         77.6168         74.4603        -5.93737    -945.664E-03
           20850         77.3282         74.2342        -5.81130        -1.12112
           20851         78.1168         74.8404        -6.15290    -967.267E-03
           20852         77.8268         74.6086        -6.03433        -1.14658
           20853         78.6167         75.2292        -6.35211    -989.574E-03
           20854         78.3254         74.9916        -6.24135        -1.17291
           20855         79.1164         75.6271        -6.53433        -1.01253
           20856         78.8239         75.3835        -6.43174        -1.20005
           20857         79.6156         76.0342        -6.69887        -1.03608
           20858         79.3220         75.7845        -6.60482        -1.22794
           20859         80.1141         76.4509        -6.84493        -1.06016
           20860         79.8195         76.1948        -6.75986        -1.25650
           20861         80.6114         76.8772        -6.97168        -1.08470
           20862         80.3160         76.6147        -6.89603        -1.28565
           20863         81.1073         77.3134        -7.07820        -1.10964
           20864         80.8113         77.0444        -7.01247        -1.31532
           20865         81.6012         77.7596        -7.16349        -1.13489
           20866         81.3049         77.4839        -7.10821        -1.34542
           20867         82.0927         78.2159        -7.22648        -1.16039
           20868         81.7963         77.9336        -7.18224        -1.37585
           20869         82.5811         78.6824        -7.26603        -1.18604
           20870         82.2850         78.3933        -7.23343        -1.40652
           20871         83.0658         79.1591        -7.28089        -1.21177
           20872         82.7703         78.8633        -7.26059        -1.43733
           20873         83.5461         79.6461        -7.26973        -1.23747
           20874         83.2515         79.3434        -7.26246        -1.46817
           20875         84.0212         80.1433        -7.23114        -1.26306
           20876         83.7280         79.8338        -7.23764        -1.49893
           20877         84.4902         80.6507        -7.16360        -1.28844
           20878         84.1987         80.3344        -7.18469        -1.52949
           20879         84.9521         81.1682        -7.06549        -1.31348
           20880         84.6629         80.8450        -7.10203        -1.55973
           20881         85.4060         81.6955        -6.93509        -1.33809
           20882         85.1196         81.3656        -6.98799        -1.58950
           20883         85.8508         82.2325        -6.77056        -1.36214
           20884         85.5677         81.8960        -6.84080        -1.61868
           20885         86.2852         82.7790        -6.56995        -1.38551
           20886         86.0061         82.4359        -6.65858        -1.64711
           20887         86.7081         83.3346        -6.33121        -1.40806
           20888         86.4336         82.9851        -6.43931        -1.67465
           20889         87.1182         83.8991        -6.05213        -1.42965
           20890         86.8489         83.5432        -6.18088        -1.70111
           20891         87.5140         84.4719        -5.73039        -1.45013
           20892         87.2506         84.1100        -5.88102        -1.72634
           20893         87.8941         85.0526        -5.36354        -1.46934
           20894         87.6374         84.6849        -5.53736        -1.75015
           20895         88.2570         85.6408        -4.94896        -1.48712
           20896         88.0076         85.2674        -5.14736        -1.77233
           20897         88.6011         86.2357        -4.48390        -1.50329
           20898         88.3599         85.8569        -4.70835        -1.79269
           20899         88.9246         86.8367        -3.96546        -1.51765
           20900         88.6925         86.4529        -4.21750        -1.81100
           20901         89.2260         87.4430        -3.39055        -1.53000
           20902         89.0037         87.0546        -3.67183        -1.82702
           20903         89.5034         88.0538        -2.75592        -1.54012
           20904         89.2918         87.6613        -3.06818        -1.84049
           20905         89.7550         88.6682        -2.05814        -1.54779
           20906         89.5551         88.2719        -2.40320        -1.85116
           20907         89.9791         89.2851        -1.29358        -1.55274
           20908         89.7917         88.8856        -1.67339        -1.85874
           20909         90.1737         89.9034    -458.397E-03        -1.55473
           20910         89.9998         89.5012    -875.001E-03        -1.86291
           20911         90.3371         90.5219     451.452E-03        -1.55346
           20912         90.1775         90.1176    -4.11687E-03        -1.86334
           20913         90.4675         91.1392         1.44023        -1.54863
           20914         90.3230         90.7336     943.420E-03        -1.85970
           20915         90.5630         91.7538         2.51247        -1.53992
           20916         90.4346         91.3476         1.97198        -1.85159
           20917         90.6222         92.3642         3.67292        -1.52698
           20918         90.5106         91.9582         3.08621        -1.83862
           20919         90.6434         92.9685         4.92663        -1.50944
           20920         90.5494         92.5636         4.29099        -1.82035
           20921         90.6254         93.5648         6.27892        -1.48689
           20922         90.5495         93.1621         5.59149        -1.79632
           20923         90.5670         94.1512         7.73540        -1.45892
           20924         90.5097         93.7516         6.99316        -1.76605
           20925         90.4675         94.7253         9.30200        -1.42508
           20926         90.4292         94.3301         8.50176        -1.72900
           20927         90.3266         95.2847         10.9850        -1.38487
           20928         90.3074         94.8951         10.1234        -1.68461
           20929         90.1445         95.8268         12.7910        -1.33778
           20930         90.1441         95.4442         11.8644        -1.63229
           20931         89.9220         96.3486         14.7270        -1.28327
           20932         89.9399         95.9746         13.7317        -1.57139
           20933         89.6607         96.8473         16.8004        -1.22075
           20934         89.6961         96.4833         15.7324        -1.50124
           20935         89.3635         97.3194         19.0189        -1.14960
           20936         89.4147         96.9673         17.8740        -1.42111
           20937         89.0341         97.7613         21.3908        -1.06918
           20938         89.0992         97.4230         20.1646        -1.33025
           20939         88.6781         98.1693         23.9249    -978.794E-03
           20940         88.7540         97.8468         22.6126        -1.22786
           20941         88.3026         98.5393         26.6301    -877.716E-03
           20942         88.3855         98.2346         25.2269        -1.11308
           20943         87.9172         98.8668         29.5162    -765.183E-03
           20944         88.0021         98.5824         28.0168    -985.019E-03
           20945         87.5338         99.1470         32.5933    -640.395E-03
           20946         87.6145         98.8854         30.9923    -842.741E-03
           20947         87.1675         99.3751         35.8723    -502.515E-03
           20948         87.2361         99.1389         34.1638    -685.260E-03
           20949         86.8371         99.5454         39.3642    -350.668E-03
           20950         86.8839         99.3376         37.5423    -511.552E-03
           20951         86.5653         99.6524         43.0810    -183.947E-03
           20952         86.5785         99.4759         41.1392    -320.542E-03
           20953         86.3794         99.6896         47.0357    -1.35315E-03
           20954         86.3452         99.5479         44.9668    -111.127E-03
           20955         53.8504         60.3503         17.3307        -1.04364
           20956         53.6310         60.1952         17.6714        -1.19434
           20957         53.4063         60.0521         18.0152        -1.04680
           20958         54.3029         60.6477         16.6512        -1.04110
           20959         54.0790         60.4929         16.9897        -1.19110
           20960         54.7636         60.9445         15.9763        -1.03899
           20961         54.5353         60.7898         16.3127        -1.18846
           20962         55.2321         61.2408         15.3060        -1.03715
           20963         54.9996         61.0862         15.6402        -1.18620
           20964         55.7080         61.5365         14.6403        -1.03544
           20965         55.4716         61.3820         14.9723        -1.18417
           20966         56.1910         61.8317         13.9792        -1.03373
           20967         55.9509         61.6774         14.3089        -1.18219
           20968         56.6805         62.1264         13.3230        -1.03193
           20969         56.4369         61.9721         13.6502        -1.18017
           20970         57.1760         62.4205         12.6717        -1.02995
           20971         56.9291         62.2663         12.9964        -1.17798
           20972         57.6770         62.7139         12.0258        -1.02775
           20973         57.4271         62.5598         12.3476        -1.17556
           20974         58.1829         63.0065         11.3853        -1.02529
           20975         57.9303         62.8526         11.7043        -1.17285
           20976         58.6932         63.2984         10.7508        -1.02256
           20977         58.4381         63.1445         11.0667        -1.16984
           20978         59.2072         63.5892         10.1226        -1.01956
           20979         58.9498         63.4355         10.4352        -1.16651
           20980         59.7243         63.8791         9.50097        -1.01633
           20981         59.4650         63.7255         9.81016        -1.16289
           20982         60.2440         64.1679         8.88637        -1.01288
           20983         59.9829         64.0144         9.19195        -1.15901
           20984         60.7658         64.4555         8.27917        -1.00929
           20985         60.5031         64.3021         8.58098        -1.15492
           20986         61.2889         64.7420         7.67977        -1.00562
           20987         61.0249         64.5886         7.97764        -1.15070
           20988         61.8131         65.0273         7.08853        -1.00195
           20989         61.5478         64.8738         7.38232        -1.14643
           20990         62.3376         65.3113         6.50582    -998.360E-03
           20991         62.0714         65.1578         6.79539        -1.14221
           20992         62.8622         65.5942         5.93199    -994.947E-03
           20993         62.5951         65.4406         6.21721        -1.13813
           20994         63.3864         65.8761         5.36736    -991.809E-03
           20995         63.1185         65.7221         5.64812        -1.13432
           20996         63.9098         66.1569         4.81224    -989.047E-03
           20997         63.6413         66.0025         5.08843        -1.13087
           20998         64.4321         66.4368         4.26691    -986.764E-03
           20999         64.1631         66.2820         4.53844        -1.12791
           21000         64.9531         66.7161         3.73162    -985.061E-03
           21001         64.6835         66.5605         3.99842        -1.12556
           21002         65.4726         66.9948         3.20663    -984.039E-03
           21003         65.2025         66.8384         3.46862        -1.12394
           21004         65.9903         67.2732         2.69212    -983.796E-03
           21005         65.7197         67.1158         2.94926        -1.12315
           21006         66.5062         67.5515         2.18831    -984.424E-03
           21007         66.2350         67.3930         2.44054        -1.12330
           21008         67.0201         67.8299         1.69535    -986.011E-03
           21009         66.7485         67.6701         1.94263        -1.12450
           21010         67.5321         68.1089         1.21339    -988.640E-03
           21011         67.2598         67.9475         1.45569        -1.12685
           21012         68.0421         68.3887     742.582E-03    -992.385E-03
           21013         67.7692         68.2256     979.867E-03        -1.13044
           21014         68.5502         68.6695     283.036E-03    -997.315E-03
           21015         68.2766         68.5045     515.280E-03        -1.13534
           21016         69.0565         68.9519    -165.129E-03        -1.00349
           21017         68.7821         68.7846     62.0475E-03        -1.14163
           21018         69.5610         69.2361    -601.810E-03        -1.01096
           21019         69.2857         69.0664    -379.727E-03        -1.14938
           21020         70.0639         69.5225        -1.02690        -1.01978
           21021         69.7876         69.3502    -809.943E-03        -1.15865
           21022         70.5653         69.8116        -1.44031        -1.02998
           21023         70.2879         69.6364        -1.22850        -1.16947
           21024         71.0655         70.1037        -1.84192        -1.04158
           21025         70.7868         69.9253        -1.63531        -1.18188
           21026         71.5645         70.3992        -2.23161        -1.05461
           21027         71.2844         70.2175        -2.03024        -1.19592
           21028         72.0625         70.6986        -2.60928        -1.06909
           21029         71.7810         70.5133        -2.41320        -1.21160
           21030         72.5597         71.0022        -2.97477        -1.08501
           21031         72.2767         70.8130        -2.78406        -1.22893
           21032         73.0564         71.3106        -3.32792        -1.10237
           21033         72.7716         71.1173        -3.14266        -1.24791
           21034         73.5526         71.6240        -3.66857        -1.12117
           21035         73.2661         71.4264        -3.48885        -1.26854
           21036         74.0485         71.9429        -3.99651        -1.14139
           21037         73.7602         71.7407        -3.82243        -1.29080
           21038         74.5443         72.2677        -4.31149        -1.16300
           21039         74.2540         72.0607        -4.14319        -1.31467
           21040         75.0401         72.5988        -4.61327        -1.18598
           21041         74.7478         72.3868        -4.45089        -1.34012
           21042         75.5359         72.9366        -4.90152        -1.21028
           21043         75.2417         72.7194        -4.74524        -1.36710
           21044         76.0319         73.2815        -5.17592        -1.23587
           21045         75.7356         73.0588        -5.02593        -1.39558
           21046         76.5281         73.6338        -5.43608        -1.26270
           21047         76.2297         73.4054        -5.29259        -1.42550
           21048         77.0245         73.9939        -5.68157        -1.29070
           21049         76.7241         73.7597        -5.54482        -1.45680
           21050         77.5211         74.3621        -5.91191        -1.31983
           21051         77.2186         74.1217        -5.78217        -1.48941
           21052         78.0177         74.7386        -6.12657        -1.35002
           21053         77.7132         74.4921        -6.00415        -1.52327
           21054         78.5142         75.1239        -6.32496        -1.38119
           21055         78.2078         74.8709        -6.21018        -1.55830
           21056         79.0106         75.5181        -6.50644        -1.41327
           21057         78.7024         75.2586        -6.39966        -1.59441
           21058         79.5065         75.9216        -6.67030        -1.44618
           21059         79.1966         75.6553        -6.57192        -1.63152
           21060         80.0016         76.3345        -6.81577        -1.47983
           21061         79.6902         76.0613        -6.72621        -1.66952
           21062         80.4957         76.7570        -6.94200        -1.51413
           21063         80.1830         76.4768        -6.86174        -1.70831
           21064         80.9883         77.1894        -7.04809        -1.54898
           21065         80.6745         76.9020        -6.97762        -1.74779
           21066         81.4791         77.6317        -7.13305        -1.58427
           21067         81.1643         77.3371        -7.07292        -1.78783
           21068         81.9673         78.0840        -7.19580        -1.61990
           21069         81.6520         77.7822        -7.14661        -1.82832
           21070         82.4526         78.5465        -7.23521        -1.65576
           21071         82.1369         78.2373        -7.19758        -1.86914
           21072         82.9342         79.0192        -7.25004        -1.69171
           21073         82.6185         78.7025        -7.22465        -1.91014
           21074         83.4114         79.5021        -7.23896        -1.72764
           21075         83.0961         79.1779        -7.22654        -1.95117
           21076         83.8833         79.9952        -7.20057        -1.76340
           21077         83.5689         79.6635        -7.20189        -1.99210
           21078         84.3493         80.4983        -7.13336        -1.79886
           21079         84.0361         80.1591        -7.14924        -2.03277
           21080         84.8082         81.0115        -7.03570        -1.83386
           21081         84.4968         80.6648        -7.06703        -2.07300
           21082         85.2591         81.5345        -6.90590        -1.86825
           21083         84.9500         81.1804        -6.95361        -2.11262
           21084         85.7008         82.0672        -6.74211        -1.90187
           21085         85.3946         81.7057        -6.80720        -2.15144
           21086         86.1323         82.6092        -6.54240        -1.93452
           21087         85.8295         82.2405        -6.62593        -2.18928
           21088         86.5523         83.1604        -6.30472        -1.96604
           21089         86.2535         82.7845        -6.40781        -2.22591
           21090         86.9594         83.7203        -6.02688        -1.99621
           21091         86.6654         83.3375        -6.15071        -2.26113
           21092         87.3523         84.2886        -5.70656        -2.02484
           21093         87.0637         83.8989        -5.85241        -2.29471
           21094         87.7296         84.8647        -5.34132        -2.05170
           21095         87.4471         84.4685        -5.51052        -2.32639
           21096         88.0895         85.4482        -4.92857        -2.07655
           21097         87.8140         85.0456        -5.12252        -2.35591
           21098         88.4307         86.0385        -4.46556        -2.09915
           21099         88.1629         85.6298        -4.68577        -2.38300
           21100         88.7514         86.6348        -3.94940        -2.11922
           21101         88.4921         86.2203        -4.19745        -2.40737
           21102         89.0499         87.2364        -3.37703        -2.13649
           21103         88.8000         86.8165        -3.65459        -2.42870
           21104         89.3245         87.8425        -2.74520        -2.15065
           21105         89.0848         87.4176        -3.05404        -2.44664
           21106         89.5733         88.4521        -2.05051        -2.16137
           21107         89.3448         88.0228        -2.39251        -2.46086
           21108         89.7945         89.0643        -1.28935        -2.16832
           21109         89.5781         88.6309        -1.66647        -2.47096
           21110         89.9863         89.6779    -457.898E-03        -2.17112
           21111         89.7829         89.2410    -872.237E-03        -2.47653
           21112         90.1469         90.2917     447.872E-03        -2.16937
           21113         89.9573         89.8520    -5.90165E-03        -2.47715
           21114         90.2745         90.9043         1.43220        -2.16266
           21115         90.0996         90.4624     936.663E-03        -2.47233
           21116         90.3673         91.5143         2.49958        -2.15052
           21117         90.2079         91.0710         1.95980        -2.46159
           21118         90.4237         92.1201         3.65474        -2.13248
           21119         90.2807         91.6762         3.06812        -2.44438
           21120         90.4421         92.7199         4.90270        -2.10800
           21121         90.3162         92.2764         4.26647        -2.42013
           21122         90.4213         93.3119         6.24875        -2.07655
           21123         90.3130         92.8697         5.55998        -2.38823
           21124         90.3601         93.8939         7.69846        -2.03753
           21125         90.2701         93.4541         6.95407        -2.34803
           21126         90.2578         94.4638         9.25773        -1.99029
           21127         90.1863         94.0276         8.45445        -2.29881
           21128         90.1142         95.0191         10.9328        -1.93417
           21129         90.0612         94.5878         10.0672        -2.23985
           21130         89.9292         95.5573         12.7302        -1.86845
           21131         89.8947         95.1322         11.7986        -2.17033
           21132         89.7039         96.0755         14.6570        -1.79235
           21133         89.6872         95.6582         13.6555        -2.08941
           21134         89.4398         96.5706         16.7204        -1.70507
           21135         89.4401         96.1627         15.6450        -1.99619
           21136         89.1396         97.0394         18.9282        -1.60574
           21137         89.1553         96.6427         17.7746        -1.88970
           21138         88.8073         97.4783         21.2886        -1.49346
           21139         88.8363         97.0947         20.0522        -1.76894
           21140         88.4482         97.8836         23.8103        -1.36725
           21141         88.4877         97.5151         22.4863        -1.63284
           21142         88.0697         98.2510         26.5022        -1.22609
           21143         88.1157         97.8999         25.0856        -1.48026
           21144         87.6811         98.5763         29.3741        -1.06893
           21145         87.7286         98.2449         27.8595        -1.31000
           21146         87.2944         98.8548         32.4361    -894.640E-03
           21147         87.3372         98.5457         30.8179        -1.12083
           21148         86.9248         99.0814         35.6988    -702.045E-03
           21149         86.9550         98.7972         33.9711    -911.423E-03
           21150         86.5909         99.2507         39.1734    -489.923E-03
           21151         86.5988         98.9944         37.3300    -680.416E-03
           21152         86.3156         99.3570         42.8719    -256.996E-03
           21153         86.2894         99.1318         40.9061    -426.375E-03
           21154         86.1262         99.3940         46.8070    -1.89045E-03
           21155         86.0520         99.2033         44.7116    -147.828E-03
           21156         53.8577         60.3365         17.3276        -1.34127
           21157         53.6398         60.1800         17.6674        -1.49220
           21158         53.4145         60.0387         18.0112        -1.34527
           21159         54.3095         60.6336         16.6486        -1.33804
           21160         54.0869         60.4773         16.9864        -1.48821
           21161         54.7695         60.9301         15.9741        -1.33535
           21162         54.5424         60.7739         16.3100        -1.48494
           21163         55.2373         61.2260         15.3040        -1.33298
           21164         55.0060         61.0699         15.6378        -1.48213
           21165         55.7127         61.5214         14.6383        -1.33074
           21166         55.4773         61.3653         14.9700        -1.47956
           21167         56.1951         61.8162         13.9772        -1.32849
           21168         55.9559         61.6602         14.3066        -1.47704
           21169         56.6840         62.1105         13.3208        -1.32610
           21170         56.4412         61.9546         13.6478        -1.47443
           21171         57.1788         62.4041         12.6693        -1.32346
           21172         56.9328         62.2483         12.9937        -1.47159
           21173         57.6792         62.6970         12.0230        -1.32052
           21174         57.4301         62.5412         12.3447        -1.46843
           21175         58.1843         62.9890         11.3823        -1.31722
           21176         57.9324         62.8333         11.7010        -1.46489
           21177         58.6937         63.2801         10.7475        -1.31355
           21178         58.4393         63.1245         11.0631        -1.46093
           21179         59.2067         63.5701         10.1189        -1.30953
           21180         58.9500         63.4146         10.4312        -1.45657
           21181         59.7228         63.8590         9.49706        -1.30518
           21182         59.4640         63.7036         9.80583        -1.45182
           21183         60.2412         64.1467         8.88225        -1.30055
           21184         59.9806         63.9914         9.18735        -1.44673
           21185         60.7615         64.4332         8.27492        -1.29573
           21186         60.4992         64.2778         8.57618        -1.44137
           21187         61.2831         64.7183         7.67546        -1.29080
           21188         61.0194         64.5628         7.97273        -1.43583
           21189         61.8055         65.0020         7.08426        -1.28585
           21190         61.5404         64.8464         7.37740        -1.43022
           21191         62.3281         65.2844         6.50170        -1.28101
           21192         62.0619         65.1286         6.79058        -1.42466
           21193         62.8505         65.5655         5.92813        -1.27640
           21194         62.5833         65.4094         6.21262        -1.41928
           21195         63.3724         65.8454         5.36387        -1.27214
           21196         63.1042         65.6888         5.64388        -1.41423
           21197         63.8932         66.1241         4.80924        -1.26837
           21198         63.6242         65.9670         5.08468        -1.40964
           21199         64.4129         66.4018         4.26451        -1.26522
           21200         64.1430         66.2440         4.53531        -1.40567
           21201         64.9310         66.6786         3.72996        -1.26281
           21202         64.6603         66.5199         3.99605        -1.40247
           21203         65.4473         66.9548         3.20579        -1.26129
           21204         65.1758         66.7950         3.46713        -1.40017
           21205         65.9618         67.2305         2.69224        -1.26078
           21206         65.6895         67.0695         2.94877        -1.39893
           21207         66.4743         67.5060         2.18947        -1.26140
           21208         66.2011         67.3436         2.44117        -1.39888
           21209         66.9846         67.7816         1.69766        -1.26326
           21210         66.7106         67.6175         1.94451        -1.40015
           21211         67.4929         68.0575         1.21694        -1.26646
           21212         67.2179         67.8915         1.45891        -1.40286
           21213         67.9991         68.3341     747.454E-03        -1.27111
           21214         67.7230         68.1660     984.532E-03        -1.40713
           21215         68.5033         68.6117     289.302E-03        -1.27729
           21216         68.2260         68.4413     521.476E-03        -1.41305
           21217         69.0054         68.8907    -157.405E-03        -1.28507
           21218         68.7269         68.7178     69.8509E-03        -1.42073
           21219         69.5058         69.1714    -592.571E-03        -1.29454
           21220         69.2259         68.9957    -370.249E-03        -1.43023
           21221         70.0044         69.4543        -1.01611        -1.30574
           21222         69.7231         69.2755    -798.733E-03        -1.44163
           21223         70.5015         69.7397        -1.42791        -1.31872
           21224         70.2186         69.5577        -1.21551        -1.45499
           21225         70.9973         70.0281        -1.82789        -1.33351
           21226         70.7125         69.8425        -1.62050        -1.47035
           21227         71.4918         70.3198        -2.21595        -1.35015
           21228         71.2052         70.1304        -2.01360        -1.48774
           21229         71.9853         70.6153        -2.59196        -1.36864
           21230         71.6967         70.4218        -2.39470        -1.50719
           21231         72.4780         70.9149        -2.95579        -1.38900
           21232         72.1873         70.7172        -2.76369        -1.52872
           21233         72.9701         71.2192        -3.30730        -1.41122
           21234         72.6772         71.0169        -3.12043        -1.55231
           21235         73.4617         71.5285        -3.64632        -1.43529
           21236         73.1665         71.3214        -3.46477        -1.57797
           21237         73.9530         71.8433        -3.97264        -1.46118
           21238         73.6554         71.6311        -3.79653        -1.60566
           21239         74.4442         72.1638        -4.28605        -1.48887
           21240         74.1441         71.9464        -4.11550        -1.63537
           21241         74.9354         72.4907        -4.58629        -1.51831
           21242         74.6327         72.2677        -4.42145        -1.66706
           21243         75.4266         72.8241        -4.87305        -1.54946
           21244         75.1213         72.5954        -4.71409        -1.70066
           21245         75.9180         73.1646        -5.14600        -1.58226
           21246         75.6101         72.9298        -4.99312        -1.73614
           21247         76.4097         73.5123        -5.40478        -1.61665
           21248         76.0990         73.2714        -5.25820        -1.77341
           21249         76.9015         73.8678        -5.64895        -1.65256
           21250         76.5882         73.6205        -5.50891        -1.81241
           21251         77.3935         74.2314        -5.87805        -1.68991
           21252         77.0776         73.9775        -5.74482        -1.85306
           21253         77.8856         74.6032        -6.09154        -1.72862
           21254         77.5671         74.3425        -5.96544        -1.89526
           21255         78.3777         74.9837        -6.28885        -1.76860
           21256         78.0567         74.7161        -6.17020        -1.93892
           21257         78.8695         75.3731        -6.46933        -1.80975
           21258         78.5462         75.0983        -6.35852        -1.98394
           21259         79.3610         75.7717        -6.63230        -1.85196
           21260         79.0354         75.4896        -6.52971        -2.03019
           21261         79.8518         76.1796        -6.77697        -1.89512
           21262         79.5241         75.8900        -6.68305        -2.07756
           21263         80.3415         76.5971        -6.90252        -1.93911
           21264         80.0119         76.2999        -6.81775        -2.12592
           21265         80.8298         77.0244        -7.00804        -1.98381
           21266         80.4986         76.7194        -6.93293        -2.17513
           21267         81.3162         77.4615        -7.09254        -2.02908
           21268         80.9836         77.1487        -7.02765        -2.22506
           21269         81.8003         77.9086        -7.15498        -2.07479
           21270         81.4664         77.5879        -7.10091        -2.27554
           21271         82.2813         78.3657        -7.19420        -2.12078
           21272         81.9466         78.0370        -7.15160        -2.32643
           21273         82.7587         78.8330        -7.20899        -2.16690
           21274         82.4235         78.4963        -7.17853        -2.37754
           21275         83.2318         79.3105        -7.19802        -2.21298
           21276         82.8965         78.9656        -7.18046        -2.42870
           21277         83.6996         79.7980        -7.15989        -2.25886
           21278         83.3646         79.4449        -7.15602        -2.47973
           21279         84.1615         80.2955        -7.09311        -2.30434
           21280         83.8272         79.9343        -7.10376        -2.53043
           21281         84.6164         80.8030        -6.99606        -2.34924
           21282         84.2834         80.4337        -7.02214        -2.58058
           21283         85.0632         81.3203        -6.86705        -2.39335
           21284         84.7320         80.9428        -6.90950        -2.62998
           21285         85.5010         81.8471        -6.70425        -2.43647
           21286         85.1721         81.4616        -6.76410        -2.67838
           21287         85.9286         82.3833        -6.50574        -2.47836
           21288         85.6026         81.9899        -6.58405        -2.72555
           21289         86.3446         82.9285        -6.26947        -2.51878
           21290         86.0222         82.5272        -6.36740        -2.77123
           21291         86.7478         83.4824        -5.99327        -2.55749
           21292         86.4296         83.0735        -6.11202        -2.81514
           21293         87.1369         84.0446        -5.67485        -2.59422
           21294         86.8236         83.6281        -5.81570        -2.85700
           21295         87.5102         84.6147        -5.31176        -2.62867
           21296         87.2026         84.1908        -5.47608        -2.89650
           21297         87.8664         85.1920        -4.90143        -2.66056
           21298         87.5651         84.7610        -5.09066        -2.93332
           21299         88.2037         85.7760        -4.44115        -2.68955
           21300         87.9097         85.3383        -4.65680        -2.96711
           21301         88.5206         86.3661        -3.92802        -2.71532
           21302         88.2346         85.9218        -4.17171        -2.99750
           21303         88.8153         86.9614        -3.35902        -2.73748
           21304         88.5383         86.5110        -3.63245        -3.02410
           21305         89.0861         87.5612        -2.73093        -2.75566
           21306         88.8188         87.1050        -3.03590        -3.04650
           21307         89.3311         88.1646        -2.04035        -2.76945
           21308         89.0745         87.7030        -2.37876        -3.06425
           21309         89.5486         88.7704        -1.28370        -2.77839
           21310         89.3036         88.3041        -1.65757        -3.07687
           21311         89.7367         89.3777    -457.202E-03        -2.78201
           21312         89.5042         88.9072    -868.655E-03        -3.08387
           21313         89.8936         89.9853     443.147E-03        -2.77982
           21314         89.6744         89.5110    -8.14665E-03        -3.08468
           21315         90.0174         90.5917         1.42155        -2.77125
           21316         89.8125         90.1145     928.048E-03        -3.07874
           21317         90.1064         91.1955         2.48248        -2.75575
           21318         89.9167         90.7161         1.94424        -3.06541
           21319         90.1591         91.7952         3.63061        -2.73267
           21320         89.9852         91.3144         3.04498        -3.04404
           21321         90.1738         92.3890         4.87093        -2.70137
           21322         90.0166         91.9077         4.23509        -3.01391
           21323         90.1493         92.9750         6.20868        -2.66112
           21324         90.0093         92.4943         5.51965        -2.97425
           21325         90.0844         93.5513         7.64940        -2.61116
           21326         89.9621         93.0722         6.90403        -2.92425
           21327         89.9785         94.1156         9.19893        -2.55069
           21328         89.8742         93.6393         8.39389        -2.86303
           21329         89.8311         94.6656         10.8635        -2.47883
           21330         89.7450         94.1934         9.99522        -2.78967
           21331         89.6424         95.1985         12.6495        -2.39467
           21332         89.5742         94.7318         11.7143        -2.70317
           21333         89.4133         95.7117         14.5640        -2.29721
           21334         89.3626         95.2521         13.5580        -2.60247
           21335         89.1454         96.2022         16.6141        -2.18542
           21336         89.1111         95.7512         15.5331        -2.48645
           21337         88.8414         96.6666         18.8077        -2.05819
           21338         88.8221         96.2260         17.6472        -2.35390
           21339         88.5051         97.1014         21.1528        -1.91433
           21340         88.4988         96.6733         19.9083        -2.20357
           21341         88.1421         97.5030         23.6580        -1.75263
           21342         88.1457         97.0893         22.3245        -2.03412
           21343         87.7594         97.8671         26.3323        -1.57176
           21344         87.7691         97.4702         24.9046        -1.84413
           21345         87.3666         98.1896         29.1852        -1.37035
           21346         87.3774         97.8117         27.6580        -1.63211
           21347         86.9756         98.4656         32.2270        -1.14697
           21348         86.9812         98.1095         30.5944        -1.39649
           21349         86.6015         98.6902         35.4681    -900.103E-03
           21350         86.5941         98.3585         33.7240        -1.13565
           21351         86.2631         98.8581         38.9197    -628.175E-03
           21352         86.2329         98.5539         37.0579    -847.861E-03
           21353         85.9832         98.9636         42.5937    -329.554E-03
           21354         85.9184         98.6899         40.6073    -531.341E-03
           21355         85.7891         99.0002         46.5028    -2.43017E-03
           21356         85.6757         98.7607         44.3843    -184.255E-03
           21357         53.8671         60.3196         17.3236        -1.63849
           21358         53.6508         60.1618         17.6625        -1.78959
           21359         53.4249         60.0222         18.0063        -1.64330
           21360         54.3179         60.6163         16.6453        -1.63461
           21361         54.0968         60.4586         16.9825        -1.78489
           21362         54.7771         60.9123         15.9713        -1.63134
           21363         54.5514         60.7547         16.3067        -1.78101
           21364         55.2442         61.2078         15.3014        -1.62843
           21365         55.0141         61.0503         15.6349        -1.77765
           21366         55.7188         61.5028         14.6358        -1.62566
           21367         55.4846         61.3453         14.9673        -1.77453
           21368         56.2005         61.7972         13.9746        -1.62283
           21369         55.9624         61.6398         14.3038        -1.77144
           21370         56.6886         62.0910         13.3180        -1.61978
           21371         56.4469         61.9336         13.6448        -1.76818
           21372         57.1827         62.3840         12.6661        -1.61641
           21373         56.9377         62.2267         12.9904        -1.76461
           21374         57.6822         62.6762         12.0195        -1.61263
           21375         57.4341         62.5189         12.3409        -1.76062
           21376         58.1864         62.9674         11.3783        -1.60839
           21377         57.9355         62.8103         11.6968        -1.75614
           21378         58.6947         63.2576         10.7431        -1.60367
           21379         58.4412         63.1005         11.0584        -1.75112
           21380         59.2065         63.5466         10.1142        -1.59849
           21381         58.9507         63.3896         10.4260        -1.74558
           21382         59.7212         63.8343         9.49192        -1.59288
           21383         59.4632         63.6773         9.80025        -1.73955
           21384         60.2381         64.1207         8.87684        -1.58693
           21385         59.9782         63.9637         9.18142        -1.73309
           21386         60.7566         64.4056         8.26933        -1.58071
           21387         60.4950         64.2485         8.56999        -1.72628
           21388         61.2762         64.6890         7.66980        -1.57435
           21389         61.0130         64.5317         7.96640        -1.71924
           21390         61.7963         64.9708         7.07865        -1.56797
           21391         61.5317         64.8134         7.37105        -1.71211
           21392         62.3165         65.2512         6.49627        -1.56172
           21393         62.0506         65.0934         6.78435        -1.70503
           21394         62.8362         65.5300         5.92302        -1.55573
           21395         62.5692         65.3717         6.20667        -1.69817
           21396         63.3551         65.8074         5.35923        -1.55019
           21397         63.0869         65.6486         5.63837        -1.69169
           21398         63.8728         66.0835         4.80521        -1.54524
           21399         63.6036         65.9239         5.07976        -1.68578
           21400         64.3890         66.3584         4.26125        -1.54105
           21401         64.1187         66.1979         4.53115        -1.68061
           21402         64.9035         66.6322         3.72761        -1.53779
           21403         64.6321         66.4706         3.99282        -1.67637
           21404         65.4160         66.9052         3.20450        -1.53562
           21405         65.1436         66.7423         3.46498        -1.67323
           21406         65.9263         67.1775         2.69214        -1.53468
           21407         65.6528         67.0132         2.94787        -1.67137
           21408         66.4345         67.4495         2.19070        -1.53515
           21409         66.1598         67.2835         2.44166        -1.67095
           21410         66.9404         67.7214         1.70033        -1.53713
           21411         66.6645         67.5535         1.94652        -1.67213
           21412         67.4440         67.9935         1.22117        -1.54078
           21413         67.1668         67.8234         1.46259        -1.67506
           21414         67.9454         68.2662     753.341E-03        -1.54621
           21415         67.6667         68.0936     989.980E-03        -1.67987
           21416         68.4446         68.5397     296.941E-03        -1.55352
           21417         68.1643         68.3645     528.806E-03        -1.68668
           21418         68.9417         68.8145    -147.933E-03        -1.56281
           21419         68.6597         68.6364     79.1579E-03        -1.69560
           21420         69.4368         69.0909    -581.199E-03        -1.57416
           21421         69.1530         68.9096    -358.883E-03        -1.70674
           21422         69.9302         69.3693        -1.00277        -1.58764
           21423         69.6443         69.1846    -785.239E-03        -1.72016
           21424         70.4218         69.6501        -1.41258        -1.60330
           21425         70.1339         69.4618        -1.19984        -1.73595
           21426         70.9121         69.9338        -1.81052        -1.62119
           21427         70.6218         69.7415        -1.60260        -1.75415
           21428         71.4010         70.2208        -2.19651        -1.64135
           21429         71.1084         70.0242        -1.99343        -1.77480
           21430         71.8889         70.5114        -2.57045        -1.66378
           21431         71.5938         70.3104        -2.37226        -1.79793
           21432         72.3759         70.8061        -2.93221        -1.68849
           21433         72.0781         70.6003        -2.73897        -1.82355
           21434         72.8623         71.1054        -3.28166        -1.71549
           21435         72.5617         70.8946        -3.09343        -1.85167
           21436         73.3482         71.4095        -3.61863        -1.74474
           21437         73.0447         71.1935        -3.43551        -1.88226
           21438         73.8337         71.7191        -3.94294        -1.77623
           21439         73.5273         71.4975        -3.76504        -1.91531
           21440         74.3192         72.0344        -4.25438        -1.80992
           21441         74.0097         71.8070        -4.08181        -1.95078
           21442         74.8046         72.3558        -4.55268        -1.84575
           21443         74.4919         72.1225        -4.38561        -1.98862
           21444         75.2901         72.6838        -4.83758        -1.88367
           21445         74.9742         72.4442        -4.67617        -2.02876
           21446         75.7757         73.0187        -5.10873        -1.92362
           21447         75.4567         72.7726        -4.95318        -2.07115
           21448         76.2616         73.3609        -5.36578        -1.96550
           21449         75.9394         73.1081        -5.21631        -2.11570
           21450         76.7477         73.7106        -5.60830        -2.00924
           21451         76.4223         73.4510        -5.46517        -2.16233
           21452         77.2341         74.0684        -5.83584        -2.05474
           21453         76.9054         73.8016        -5.69932        -2.21093
           21454         77.7205         74.4344        -6.04787        -2.10191
           21455         77.3887         74.1603        -5.91828        -2.26139
           21456         78.2070         74.8089        -6.24383        -2.15062
           21457         77.8721         74.5273        -6.12150        -2.31360
           21458         78.6933         75.1923        -6.42308        -2.20075
           21459         78.3555         74.9030        -6.30838        -2.36743
           21460         79.1793         75.5848        -6.58492        -2.25218
           21461         78.8386         75.2875        -6.47828        -2.42274
           21462         79.6645         75.9865        -6.72860        -2.30478
           21463         79.3212         75.6812        -6.63046        -2.47940
           21464         80.1488         76.3977        -6.85330        -2.35839
           21465         79.8030         76.0843        -6.76414        -2.53724
           21466         80.6318         76.8185        -6.95810        -2.41286
           21467         80.2837         76.4968        -6.87846        -2.59611
           21468         81.1129         77.2492        -7.04205        -2.46803
           21469         80.7628         76.9190        -6.97249        -2.65582
           21470         81.5916         77.6897        -7.10408        -2.52373
           21471         81.2398         77.3511        -7.04522        -2.71621
           21472         82.0674         78.1403        -7.14307        -2.57977
           21473         81.7142         77.7930        -7.09556        -2.77707
           21474         82.5396         78.6008        -7.15780        -2.63598
           21475         82.1854         78.2449        -7.12234        -2.83821
           21476         83.0074         79.0714        -7.14697        -2.69214
           21477         82.6526         78.7067        -7.12431        -2.89941
           21478         83.4702         79.5520        -7.10918        -2.74804
           21479         83.1151         79.1785        -7.10012        -2.96045
           21480         83.9270         80.0426        -7.04293        -2.80347
           21481         83.5721         79.6603        -7.04834        -3.02109
           21482         84.3768         80.5430        -6.94664        -2.85819
           21483         84.0226         80.1519        -6.96743        -3.08108
           21484         84.8186         81.0531        -6.81862        -2.91195
           21485         84.4658         80.6532        -6.85575        -3.14016
           21486         85.2515         81.5727        -6.65705        -2.96449
           21487         84.9004         81.1641        -6.71157        -3.19806
           21488         85.6741         82.1015        -6.46003        -3.01554
           21489         85.3254         81.6843        -6.53302        -3.25449
           21490         86.0852         82.6393        -6.22552        -3.06481
           21491         85.7396         82.2136        -6.31815        -3.30913
           21492         86.4836         83.1857        -5.95137        -3.11199
           21493         86.1417         82.7516        -6.06487        -3.36165
           21494         86.8677         83.7404        -5.63530        -3.15675
           21495         86.5303         83.2980        -5.77097        -3.41173
           21496         87.2363         84.3028        -5.27489        -3.19874
           21497         86.9039         83.8523        -5.43411        -3.45898
           21498         87.5876         84.8724        -4.86759        -3.23761
           21499         87.2612         84.4141        -5.05182        -3.50303
           21500         87.9202         85.4487        -4.41070        -3.27296
           21501         87.6005         84.9828        -4.62148        -3.54346
           21502         88.2323         86.0310        -3.90136        -3.30437
           21503         87.9202         85.5578        -4.14033        -3.57983
           21504         88.5223         86.6185        -3.33655        -3.33141
           21505         88.2186         86.1384        -3.60545        -3.61167
           21506         88.7883         87.2104        -2.71310        -3.35359
           21507         88.4940         86.7238        -3.01375        -3.63850
           21508         89.0286         87.8059        -2.02764        -3.37043
           21509         88.7445         87.3132        -2.36197        -3.65977
           21510         89.2414         88.4039        -1.27662        -3.38137
           21511         88.9684         87.9056        -1.64668        -3.67492
           21512         89.4248         89.0033    -456.285E-03        -3.38584
           21513         89.1638         88.5000    -864.235E-03        -3.68334
           21514         89.5770         89.6030     437.315E-03        -3.38323
           21515         89.3289         89.0953    -10.8157E-03        -3.68439
           21516         89.6962         90.2016         1.40835        -3.37288
           21517         89.4619         89.6902     917.630E-03        -3.67737
           21518         89.7806         90.7978         2.46124        -3.35407
           21519         89.5610         90.2833         1.92536        -3.66153
           21520         89.8287         91.3898         3.60063        -3.32606
           21521         89.6244         90.8731         3.01689        -3.63609
           21522         89.8388         91.9761         4.83143        -3.28803
           21523         89.6507         91.4582         4.19698        -3.60018
           21524         89.8096         92.5548         6.15886        -3.23912
           21525         89.6383         92.0366         5.47065        -3.55290
           21526         89.7401         93.1239         7.58838        -3.17840
           21527         89.5861         92.6065         6.84321        -3.49328
           21528         89.6296         93.6812         9.12577        -3.10489
           21529         89.4931         93.1658         8.32027        -3.42026
           21530         89.4775         94.2244         10.7772        -3.01752
           21531         89.3588         93.7122         9.90774        -3.33273
           21532         89.2842         94.7508         12.5490        -2.91517
           21533         89.1830         94.2434         11.6119        -3.22951
           21534         89.0504         95.2579         14.4482        -2.79664
           21535         88.9661         94.7566         13.4393        -3.10933
           21536         88.7777         95.7424         16.4819        -2.66065
           21537         88.7095         95.2491         15.3970        -2.97084
           21538         88.4689         96.2013         18.6577        -2.50586
           21539         88.4153         95.7177         17.4923        -2.81261
           21540         88.1278         96.6311         20.9836        -2.33083
           21541         88.0866         96.1591         19.7331        -2.63312
           21542         87.7598         97.0280         23.4683        -2.13406
           21543         87.7281         96.5698         22.1275        -2.43077
           21544         87.3720         97.3880         26.1206        -1.91393
           21545         87.3461         96.9458         24.6843        -2.20385
           21546         86.9740         97.7068         28.9500        -1.66878
           21547         86.9487         97.2831         27.4126        -1.95060
           21548         86.5776         97.9798         31.9665        -1.39684
           21549         86.5468         97.5772         30.3222        -1.66912
           21550         86.1981         98.2020         35.1807        -1.09626
           21551         86.1537         97.8233         33.4233        -1.35744
           21552         85.8540         98.3681         38.6036    -765.125E-03
           21553         85.7864         98.0163         36.7265        -1.01352
           21554         85.5684         98.4725         42.2470    -401.429E-03
           21555         85.4657         98.1507         40.2434    -635.202E-03
           21556         85.3685         98.5087         46.1236    -2.96465E-03
           21557         85.2167         98.2207         43.9857    -220.257E-03
           21558         53.8786         60.2997         17.3190        -1.93524
           21559         53.6641         60.1408         17.6570        -2.08644
           21560         53.4376         60.0029         18.0005        -1.94080
           21561         54.3284         60.5959         16.6415        -1.93073
           21562         54.1089         60.4370         16.9780        -2.08108
           21563         54.7866         60.8915         15.9680        -1.92690
           21564         54.5624         60.7326         16.3028        -2.07662
           21565         55.2528         61.1865         15.2984        -1.92345
           21566         55.0242         61.0277         15.6314        -2.07270
           21567         55.7266         61.4810         14.6328        -1.92010
           21568         55.4938         61.3222         14.9639        -2.06902
           21569         56.2074         61.7749         13.9714        -1.91664
           21570         55.9706         61.6161         14.3003        -2.06531
           21571         56.6947         62.0680         13.3144        -1.91288
           21572         56.4543         61.9093         13.6410        -2.06134
           21573         57.1879         62.3604         12.6621        -1.90868
           21574         56.9441         62.2018         12.9862        -2.05695
           21575         57.6864         62.6518         12.0150        -1.90395
           21576         57.4394         62.4932         12.3362        -2.05202
           21577         58.1895         62.9421         11.3733        -1.89864
           21578         57.9397         62.7836         11.6915        -2.04646
           21579         58.6965         63.2312         10.7375        -1.89272
           21580         58.4441         63.0728         11.0525        -2.04023
           21581         59.2069         63.5190         10.1081        -1.88621
           21582         58.9521         63.3606         10.4196        -2.03335
           21583         59.7198         63.8053         9.48541        -1.87918
           21584         59.4629         63.6469         9.79324        -2.02585
           21585         60.2348         64.0900         8.86998        -1.87171
           21586         59.9760         63.9316         9.17398        -2.01781
           21587         60.7512         64.3730         8.26224        -1.86391
           21588         60.4906         64.2145         8.56223        -2.00935
           21589         61.2684         64.6543         7.66261        -1.85593
           21590         61.0061         64.4956         7.95844        -2.00060
           21591         61.7858         64.9339         7.07151        -1.84790
           21592         61.5220         64.7749         7.36306        -1.99172
           21593         62.3030         65.2117         6.48934        -1.84002
           21594         62.0378         65.0523         6.77650        -1.98290
           21595         62.8194         65.4879         5.91647        -1.83246
           21596         62.5530         65.3279         6.19915        -1.97432
           21597         63.3348         65.7623         5.35325        -1.82542
           21598         63.0671         65.6016         5.63136        -1.96619
           21599         63.8486         66.0352         4.79998        -1.81909
           21600         63.5797         65.8736         5.07347        -1.95873
           21601         64.3607         66.3067         4.25695        -1.81367
           21602         64.0905         66.1440         4.52577        -1.95214
           21603         64.8708         66.5769         3.72441        -1.80935
           21604         64.5993         66.4129         3.98854        -1.94665
           21605         65.3786         66.8460         3.20258        -1.80634
           21606         65.1057         66.6806         3.46200        -1.94246
           21607         65.8840         67.1144         2.69166        -1.80481
           21608         65.6098         66.9472         2.94637        -1.93978
           21609         66.3871         67.3821         2.19182        -1.80494
           21610         66.1113         67.2130         2.44182        -1.93880
           21611         66.8876         67.6496         1.70320        -1.80690
           21612         66.6102         67.4783         1.94851        -1.93971
           21613         67.3856         67.9171         1.22593        -1.81083
           21614         67.1065         67.7434         1.46655        -1.94267
           21615         67.8812         68.1850     760.108E-03        -1.81689
           21616         67.6003         68.0085     996.059E-03        -1.94785
           21617         68.3744         68.4537     305.826E-03        -1.82518
           21618         68.0915         68.2742     537.128E-03        -1.95539
           21619         68.8653         68.7234    -136.836E-03        -1.83584
           21620         68.5803         68.5406     89.8328E-03        -1.96542
           21621         69.3542         68.9946    -567.806E-03        -1.84894
           21622         69.0669         68.8083    -345.759E-03        -1.97804
           21623         69.8411         69.2677    -987.019E-03        -1.86458
           21624         69.5513         69.0776    -769.585E-03        -1.99336
           21625         70.3263         69.5430        -1.39440        -1.88281
           21626         70.0339         69.3489        -1.18159        -2.01144
           21627         70.8099         69.8211        -1.78989        -1.90369
           21628         70.5147         69.6227        -1.58170        -2.03236
           21629         71.2921         70.1024        -2.17340        -1.92726
           21630         70.9941         69.8993        -1.96986        -2.05615
           21631         71.7733         70.3872        -2.54484        -1.95352
           21632         71.4722         70.1792        -2.34599        -2.08285
           21633         72.2535         70.6759        -2.90411        -1.98249
           21634         71.9492         70.4628        -2.70999        -2.11246
           21635         72.7330         70.9692        -3.25108        -2.01417
           21636         72.4254         70.7505        -3.06175        -2.14499
           21637         73.2120         71.2672        -3.58559        -2.04852
           21638         72.9009         71.0428        -3.40115        -2.18042
           21639         73.6907         71.5705        -3.90749        -2.08552
           21640         73.3760         71.3402        -3.72804        -2.21872
           21641         74.1692         71.8794        -4.21655        -2.12511
           21642         73.8509         71.6429        -4.04222        -2.25985
           21643         74.6476         72.1944        -4.51254        -2.16725
           21644         74.3257         71.9514        -4.34347        -2.30374
           21645         75.1262         72.5159        -4.79519        -2.21185
           21646         74.8005         72.2661        -4.63156        -2.35033
           21647         75.6050         72.8442        -5.06418        -2.25884
           21648         75.2755         72.5874        -4.90619        -2.39954
           21649         76.0840         73.1796        -5.31915        -2.30813
           21650         75.7507         72.9157        -5.16702        -2.45127
           21651         76.5634         73.5226        -5.55970        -2.35962
           21652         76.2262         73.2512        -5.41369        -2.50542
           21653         77.0429         73.8734        -5.78537        -2.41318
           21654         76.7020         73.5944        -5.64576        -2.56187
           21655         77.5226         74.2324        -5.99566        -2.46870
           21656         77.1780         73.9455        -5.86276        -2.62049
           21657         78.0023         74.5998        -6.18999        -2.52605
           21658         77.6541         74.3049        -6.06415        -2.68115
           21659         78.4820         74.9760        -6.36775        -2.58508
           21660         78.1302         74.6728        -6.24936        -2.74370
           21661         78.9613         75.3611        -6.52826        -2.64564
           21662         78.6061         75.0495        -6.41772        -2.80798
           21663         79.4400         75.7554        -6.67075        -2.70758
           21664         79.0816         75.4353        -6.56854        -2.87382
           21665         79.9178         76.1591        -6.79442        -2.77071
           21666         79.5564         75.8302        -6.70102        -2.94104
           21667         80.3943         76.5723        -6.89837        -2.83485
           21668         80.0300         76.2346        -6.81432        -3.00945
           21669         80.8690         76.9952        -6.98165        -2.89982
           21670         80.5021         76.6485        -6.90753        -3.07885
           21671         81.3413         77.4279        -7.04320        -2.96542
           21672         80.9723         77.0721        -6.97963        -3.14903
           21673         81.8108         77.8705        -7.08192        -3.03142
           21674         81.4398         77.5055        -7.02956        -3.21977
           21675         82.2768         78.3230        -7.09659        -3.09761
           21676         81.9042         77.9487        -7.05616        -3.29082
           21677         82.7385         78.7855        -7.08591        -3.16375
           21678         82.3647         78.4018        -7.05818        -3.36195
           21679         83.1951         79.2578        -7.04852        -3.22959
           21680         82.8205         78.8647        -7.03430        -3.43289
           21681         83.6457         79.7400        -6.98291        -3.29487
           21682         83.2709         79.3374        -6.98308        -3.50337
           21683         84.0895         80.2319        -6.88753        -3.35931
           21684         83.7148         79.8199        -6.90301        -3.57309
           21685         84.5254         80.7334        -6.76069        -3.42262
           21686         84.1514         80.3120        -6.79246        -3.64176
           21687         84.9522         81.2443        -6.60059        -3.48450
           21688         84.5796         80.8135        -6.64971        -3.70905
           21689         85.3689         81.7643        -6.40535        -3.54462
           21690         84.9981         81.3243        -6.47292        -3.77463
           21691         85.7742         82.2932        -6.17295        -3.60264
           21692         85.4059         81.8440        -6.26015        -3.83814
           21693         86.1667         82.8307        -5.90125        -3.65820
           21694         85.8017         82.3723        -6.00933        -3.89919
           21695         86.5450         83.3763        -5.58800        -3.71092
           21696         86.1839         82.9090        -5.71828        -3.95739
           21697         86.9078         83.9295        -5.23079        -3.76039
           21698         86.5514         83.4535        -5.38467        -4.01232
           21699         87.2534         84.4899        -4.82711        -3.80617
           21700         86.9024         84.0053        -5.00607        -4.06353
           21701         87.5802         85.0569        -4.37426        -3.84782
           21702         87.2355         84.5640        -4.57987        -4.11053
           21703         87.8866         85.6299        -3.86944        -3.88484
           21704         87.5490         85.1290        -4.10336        -4.15282
           21705         88.1709         86.2080        -3.30965        -3.91671
           21706         87.8412         85.6994        -3.57362        -4.18987
           21707         88.4313         86.7905        -2.69174        -3.94287
           21708         88.1105         86.2747        -2.98763        -4.22108
           21709         88.6660         87.3766        -2.01239        -3.96275
           21710         88.3549         86.8539        -2.34215        -4.24585
           21711         88.8732         87.9651        -1.26808        -3.97570
           21712         88.5727         87.4360        -1.63378        -4.26353
           21713         89.0509         88.5552    -455.116E-03        -3.98104
           21714         88.7620         88.0202    -858.952E-03        -4.27340
           21715         89.1975         89.1455     430.427E-03        -3.97806
           21716         88.9210         88.6053    -13.8660E-03        -4.27471
           21717         89.3112         89.7348         1.39266        -3.96598
           21718         89.0480         89.1900     905.471E-03        -4.26667
           21719         89.3900         90.3216         2.43595        -3.94396
           21720         89.1410         89.7731         1.90326        -4.24841
           21721         89.4325         90.9046         3.56490        -3.91113
           21722         89.1984         90.3530         2.98397        -4.21900
           21723         89.4371         91.4819         4.78435        -3.86652
           21724         89.2187         90.9282         4.15227        -4.17746
           21725         89.4024         92.0517         6.09944        -3.80912
           21726         89.2004         91.4970         5.41314        -4.12273
           21727         89.3274         92.6122         7.51558        -3.73784
           21728         89.1422         92.0574         6.77182        -4.05367
           21729         89.2113         93.1611         9.03849        -3.65151
           21730         89.0432         92.6075         8.23382        -3.96909
           21731         89.0537         93.6961         10.6742        -3.54890
           21732         88.9029         93.1450         9.80498        -3.86767
           21733         88.8548         94.2148         12.4291        -3.42867
           21734         88.7210         93.6675         11.4915        -3.74805
           21735         88.6153         94.7143         14.3100        -3.28941
           21736         88.4982         94.1725         13.2999        -3.60874
           21737         88.3371         95.1918         16.3240        -3.12962
           21738         88.2355         94.6571         15.2370        -3.44819
           21739         88.0225         95.6441         18.4785        -2.94771
           21740         87.9352         95.1183         17.3102        -3.26471
           21741         87.6756         96.0678         20.7817        -2.74198
           21742         87.6003         95.5528         19.5271        -3.05656
           21743         87.3016         96.4592         23.2418        -2.51064
           21744         87.2355         95.9572         21.8960        -2.82185
           21745         86.9078         96.8142         25.8677        -2.25182
           21746         86.8470         96.3275         24.4252        -2.55860
           21747         86.5036         97.1286         28.6690        -1.96353
           21748         86.4430         96.6597         27.1241        -2.26475
           21749         86.1009         97.3980         31.6553        -1.64368
           21750         86.0343         96.9494         30.0021        -1.93809
           21751         85.7149         97.6173         34.8373        -1.29009
           21752         85.6343         97.1919         33.0694        -1.57632
           21753         85.3642         97.7812         38.2258    -900.482E-03
           21754         85.2599         97.3822         36.3366        -1.17705
           21755         85.0718         97.8842         41.8326    -472.482E-03
           21756         84.9320         97.5148         39.8151    -737.754E-03
           21757         84.8651         97.9201         45.6703    -3.49563E-03
           21758         84.6757         97.5838         43.5166    -255.854E-03
           21759         53.8926         60.2771         17.3137        -2.23144
           21760         53.6800         60.1172         17.6507        -2.38267
           21761         53.4529         59.9809         17.9939        -2.23768
           21762         54.3412         60.5727         16.6371        -2.22635
           21763         54.1235         60.4128         16.9729        -2.37671
           21764         54.7983         60.8678         15.9641        -2.22197
           21765         54.5758         60.7079         16.2984        -2.37170
           21766         55.2635         61.1623         15.2947        -2.21797
           21767         55.0365         61.0024         15.6274        -2.36724
           21768         55.7363         61.4563         14.6291        -2.21402
           21769         55.5050         61.2964         14.9599        -2.36296
           21770         56.2162         61.7495         13.9674        -2.20986
           21771         55.9809         61.5897         14.2962        -2.35857
           21772         56.7026         62.0420         13.3100        -2.20530
           21773         56.4635         61.8822         13.6364        -2.35382
           21774         57.1947         62.3336         12.6572        -2.20016
           21775         56.9523         62.1739         12.9810        -2.34851
           21776         57.6920         62.6241         12.0094        -2.19435
           21777         57.4465         62.4644         12.3304        -2.34250
           21778         58.1938         62.9133         11.3671        -2.18781
           21779         57.9454         62.7538         11.6850        -2.33570
           21780         58.6993         63.2012         10.7306        -2.18051
           21781         58.4483         63.0417         11.0452        -2.32808
           21782         59.2080         63.4875         10.1005        -2.17249
           21783         58.9546         63.3281         10.4116        -2.31965
           21784         59.7190         63.7721         9.47732        -2.16383
           21785         59.4634         63.6127         9.78460        -2.31047
           21786         60.2317         64.0549         8.86146        -2.15462
           21787         59.9742         63.8954         9.16480        -2.30063
           21788         60.7456         64.3358         8.25342        -2.14500
           21789         60.4863         64.1762         8.55265        -2.29027
           21790         61.2599         64.6147         7.65365        -2.13514
           21791         60.9989         64.4549         7.94863        -2.27955
           21792         61.7742         64.8916         7.06261        -2.12524
           21793         61.5116         64.7314         7.35320        -2.26866
           21794         62.2878         65.1665         6.48068        -2.11548
           21795         62.0238         65.0058         6.76679        -2.25782
           21796         62.8005         65.4394         5.90827        -2.10610
           21797         62.5350         65.2780         6.18981        -2.24726
           21798         63.3116         65.7104         5.34571        -2.09731
           21799         63.0448         65.5482         5.62262        -2.23722
           21800         63.8209         65.9795         4.79331        -2.08936
           21801         63.5527         65.8163         5.06555        -2.22794
           21802         64.3281         66.2470         4.25138        -2.08247
           21803         64.0585         66.0826         4.51892        -2.21968
           21804         64.8330         66.5130         3.72014        -2.07687
           21805         64.5618         66.3471         3.98298        -2.21269
           21806         65.3353         66.7777         3.19983        -2.07280
           21807         65.0626         66.6101         3.45797        -2.20721
           21808         65.8350         67.0413         2.69061        -2.07046
           21809         65.5606         66.8717         2.94407        -2.20347
           21810         66.3320         67.3041         2.19266        -2.07005
           21811         66.0557         67.1324         2.44145        -2.20171
           21812         66.8261         67.5664         1.70611        -2.07178
           21813         66.5480         67.3922         1.95027        -2.20213
           21814         67.3176         67.8286         1.23106        -2.07582
           21815         67.0373         67.6516         1.47062        -2.20493
           21816         67.8064         68.0909     767.596E-03        -2.08232
           21817         67.5239         67.9110         1.00259        -2.21029
           21818         68.2926         68.3538     315.805E-03        -2.09144
           21819         68.0077         68.1706     546.274E-03        -2.21837
           21820         68.7764         68.6176    -124.255E-03        -2.10330
           21821         68.4889         68.4308     101.717E-03        -2.22933
           21822         69.2579         68.8827    -552.530E-03        -2.11801
           21823         68.9677         68.6920    -331.026E-03        -2.24327
           21824         69.7373         69.1496    -968.969E-03        -2.13567
           21825         69.4442         68.9547    -751.913E-03        -2.26032
           21826         70.2149         69.4186        -1.37352        -2.15633
           21827         69.9186         69.2193        -1.16090        -2.28056
           21828         70.6907         69.6902        -1.76613        -2.18007
           21829         70.3913         69.4861        -1.55795        -2.30405
           21830         71.1652         69.9648        -2.14673        -2.20692
           21831         70.8623         69.7557        -1.94300        -2.33084
           21832         71.6384         70.2428        -2.51525        -2.23690
           21833         71.3319         70.0284        -2.31599        -2.36098
           21834         72.1107         70.5247        -2.87160        -2.27002
           21835         71.8005         70.3047        -2.67686        -2.39446
           21836         72.5822         70.8108        -3.21566        -2.30626
           21837         72.2681         70.5850        -3.02550        -2.43128
           21838         73.0532         71.1017        -3.54730        -2.34560
           21839         72.7351         70.8697        -3.36181        -2.47143
           21840         73.5238         71.3978        -3.86637        -2.38799
           21841         73.2016         71.1593        -3.68563        -2.51487
           21842         73.9942         71.6993        -4.17266        -2.43339
           21843         73.6678         71.4542        -3.99681        -2.56154
           21844         74.4647         72.0068        -4.46595        -2.48173
           21845         74.1340         71.7548        -4.29514        -2.61138
           21846         74.9352         72.3207        -4.74599        -2.53291
           21847         74.6002         72.0614        -4.58038        -2.66430
           21848         75.4060         72.6413        -5.01245        -2.58685
           21849         75.0666         72.3745        -4.85225        -2.72022
           21850         75.8770         72.9689        -5.26501        -2.64344
           21851         75.5332         72.6945        -5.11043        -2.77902
           21852         76.3484         73.3039        -5.50325        -2.70256
           21853         76.0002         73.0216        -5.35457        -2.84058
           21854         76.8200         73.6467        -5.72675        -2.76408
           21855         76.4675         73.3562        -5.58424        -2.90477
           21856         77.2918         73.9975        -5.93499        -2.82785
           21857         76.9350         73.6987        -5.79898        -2.97144
           21858         77.7637         74.3567        -6.12744        -2.89373
           21859         77.4027         74.0493        -5.99828        -3.04043
           21860         78.2356         74.7245        -6.30347        -2.96155
           21861         77.8705         74.4083        -6.18154        -3.11158
           21862         78.7072         75.1011        -6.46241        -3.03113
           21863         78.3381         74.7760        -6.34815        -3.18470
           21864         79.1783         75.4867        -6.60352        -3.10229
           21865         78.8054         75.1525        -6.49738        -3.25961
           21866         79.6485         75.8817        -6.72600        -3.17483
           21867         79.2720         75.5382        -6.62849        -3.33608
           21868         80.1174         76.2860        -6.82896        -3.24854
           21869         79.7375         75.9331        -6.74062        -3.41392
           21870         80.5847         76.6999        -6.91145        -3.32320
           21871         80.2017         76.3375        -6.83288        -3.49288
           21872         81.0496         77.1235        -6.97245        -3.39857
           21873         80.6638         76.7514        -6.90427        -3.57273
           21874         81.5118         77.5569        -7.01084        -3.47441
           21875         81.1235         77.1749        -6.95373        -3.65322
           21876         81.9705             78.        -7.02544        -3.55047
           21877         81.5800         77.6082        -6.98011        -3.73406
           21878         82.4249         78.4529        -7.01495        -3.62647
           21879         82.0327         78.0512        -6.98220        -3.81499
           21880         82.8744         78.9157        -6.97801        -3.70213
           21881         82.4809         78.5039        -6.95866        -3.89571
           21882         83.3180         79.3881        -6.91316        -3.77714
           21883         82.9236         78.9663        -6.90808        -3.97590
           21884         83.7547         79.8701        -6.81883        -3.85119
           21885         83.3600         79.4383        -6.82898        -4.05523
           21886         84.1836         80.3616        -6.69336        -3.92394
           21887         83.7891         79.9197        -6.71972        -4.13337
           21888         84.6035         80.8624        -6.53498        -3.99505
           21889         84.2098         80.4105        -6.57862        -4.20993
           21890         85.0133         81.3722        -6.34180        -4.06413
           21891         84.6210         80.9104        -6.40385        -4.28455
           21892         85.4117         81.8908        -6.11185        -4.13081
           21893         85.0214         81.4191        -6.19350        -4.35681
           21894         85.7974         82.4178        -5.84299        -4.19466
           21895         85.4098         81.9363        -5.94551        -4.42628
           21896         86.1690         82.9528        -5.53301        -4.25524
           21897         85.7848         82.4617        -5.65772        -4.49251
           21898         86.5250         83.4955        -5.17952        -4.31210
           21899         86.1450         82.9948        -5.32785        -4.55502
           21900         86.8638         84.0452        -4.78003        -4.36473
           21901         86.4888         83.5353        -4.95348        -4.61329
           21902         87.1840         84.6013        -4.33189        -4.41260
           21903         86.8148         84.0825        -4.53204        -4.66680
           21904         87.4838         85.1634        -3.83231        -4.45517
           21905         87.1211         84.6358        -4.06083        -4.71495
           21906         87.7614         85.7306        -3.27834        -4.49183
           21907         87.4063         85.1946        -3.53701        -4.75714
           21908         88.0152         86.3022        -2.66686        -4.52196
           21909         87.6684         85.7581        -2.95756        -4.79270
           21910         88.2433         86.8772        -1.99460        -4.54486
           21911         87.9058         86.3256        -2.31930        -4.82096
           21912         88.4439         87.4548        -1.25808        -4.55982
           21913         88.1165         86.8960        -1.61889        -4.84115
           21914         88.6152         88.0339    -453.659E-03        -4.56606
           21915         88.2989         87.4684    -852.781E-03        -4.85248
           21916         88.7553         88.6132     422.538E-03        -4.56276
           21917         88.4509         88.0418    -17.2485E-03        -4.85411
           21918         88.8624         89.1917         1.37457        -4.54902
           21919         88.5709         88.6149     891.645E-03        -4.84511
           21920         88.9348         89.7678         2.40673        -4.52389
           21921         88.6570         89.1863         1.87804        -4.82451
           21922         88.9708         90.3400         3.52356        -4.48636
           21923         88.7075         89.7548         2.94633        -4.79126
           21924         88.9689         90.9068         4.72984        -4.43534
           21925         88.7209         90.3186         4.10113        -4.74424
           21926         88.9278         91.4664         6.03062        -4.36965
           21927         88.6956         90.8763         5.34733        -4.68225
           21928         88.8464         92.0168         7.43126        -4.28804
           21929         88.6305         91.4258         6.69008        -4.60400
           21930         88.7238         92.5559         8.93736        -4.18918
           21931         88.5247         91.9652         8.13481        -4.50812
           21932         88.5598         93.0815         10.5549        -4.07164
           21933         88.3775         92.4923         9.68729        -4.39314
           21934         88.3544         93.5910         12.2902        -3.93389
           21935         88.1888         93.0049         11.3536        -4.25747
           21936         88.1085         94.0818         14.1498        -3.77431
           21937         87.9590         93.5003         13.1401        -4.09946
           21938         87.8237         94.5511         16.1409        -3.59118
           21939         87.6894         93.9758         15.0537        -3.91730
           21940         87.5025         94.9957         18.2708        -3.38265
           21941         87.3820         94.4285         17.1015        -3.70911
           21942         87.1488         95.4122         20.5474        -3.14677
           21943         87.0400         94.8551         19.2910        -3.47285
           21944         86.7680         95.7970         22.9790        -2.88150
           21945         86.6679         95.2521         21.6304        -3.20642
           21946         86.3673         96.1462         25.5744        -2.58464
           21947         86.2721         95.6158         24.1281        -2.90753
           21948         85.9559         96.4556         28.3428        -2.25393
           21949         85.8606         95.9421         26.7931        -2.57382
           21950         85.5459         96.7207         31.2941        -1.88694
           21951         85.4442         96.2268         29.6348        -2.20278
           21952         85.1524         96.9365         34.4386        -1.48116
           21953         85.0364         96.4652         32.6633        -1.79177
           21954         84.7941         97.0980         37.7871        -1.03395
           21955         84.6540         96.6523         35.8891        -1.33806
           21956         84.4939         97.1995         41.3513    -542.586E-03
           21957         84.3178         96.7826         39.3234    -838.765E-03
           21958         84.2794         97.2348         45.1437    -4.02504E-03
           21959         84.0533         96.8506         42.9778    -290.921E-03
           21960         53.9092         60.2521         17.3078        -2.52704
           21961         53.6987         60.0914         17.6438        -2.67823
           21962         53.4710         59.9565         17.9867        -2.53388
           21963         54.3564         60.5471         16.6322        -2.52141
           21964         54.1408         60.3863         16.9672        -2.67173
           21965         54.8124         60.8416         15.9597        -2.51651
           21966         54.5918         60.6808         16.2935        -2.66621
           21967         55.2765         61.1356         15.2905        -2.51194
           21968         55.0513         60.9747         15.6228        -2.66121
           21969         55.7483         61.4289         14.6247        -2.50734
           21970         55.5187         61.2681         14.9553        -2.65631
           21971         56.2271         61.7215         13.9627        -2.50242
           21972         55.9935         61.5608         14.2912        -2.65119
           21973         56.7124         62.0133         13.3047        -2.49695
           21974         56.4751         61.8526         13.6309        -2.64555
           21975         57.2034         62.3040         12.6512        -2.49075
           21976         56.9626         62.1434         12.9748        -2.63919
           21977         57.6994         62.5934         12.0026        -2.48370
           21978         57.4555         62.4329         12.3234        -2.63195
           21979         58.1997         62.8814         11.3594        -2.47573
           21980         57.9529         62.7211         11.6770        -2.62373
           21981         58.7035         63.1679         10.7221        -2.46685
           21982         58.4542         63.0076         11.0363        -2.61451
           21983         59.2102         63.4525         10.0913        -2.45710
           21984         58.9585         63.2923         10.4018        -2.60430
           21985         59.7190         63.7352         9.46741        -2.44655
           21986         59.4652         63.5751         9.77409        -2.59317
           21987         60.2292         64.0158         8.85102        -2.43534
           21988         59.9734         63.8556         9.15363        -2.58126
           21989         60.7401         64.2943         8.24261        -2.42363
           21990         60.4825         64.1339         8.54099        -2.56871
           21991         61.2511         64.5704         7.64268        -2.41163
           21992         60.9918         64.4098         7.93667        -2.55572
           21993         61.7617         64.8442         7.05168        -2.39955
           21994         61.5008         64.6832         7.34117        -2.54253
           21995         62.2713         65.1157         6.47003        -2.38764
           21996         62.0089         64.9542         6.75492        -2.52937
           21997         62.7795         65.3849         5.89813        -2.37614
           21998         62.5155         65.2226         6.17836        -2.51652
           21999         63.2858         65.6519         5.33634        -2.36533
           22000         63.0203         65.4887         5.61186        -2.50426
           22001         63.7899         65.9168         4.78497        -2.35548
           22002         63.5229         65.7524         5.05575        -2.49287
           22003         64.2915         66.1797         4.24430        -2.34685
           22004         64.0228         66.0139         4.51034        -2.48264
           22005         64.7904         66.4408         3.71457        -2.33971
           22006         64.5200         66.2734         3.97589        -2.47386
           22007         65.2864         66.7003         3.19601        -2.33431
           22008         65.0142         66.5310         3.45262        -2.46681
           22009         65.7794         66.9585         2.68877        -2.33091
           22010         65.5053         66.7871         2.94071        -2.46175
           22011         66.2694         67.2157         2.19301        -2.32974
           22012         65.9931         67.0418         2.44033        -2.45895
           22013         66.7563         67.4721         1.70884        -2.33102
           22014         66.4778         67.2955         1.95158        -2.45864
           22015         67.2402         67.7281         1.23635        -2.33495
           22016         66.9592         67.5485         1.47458        -2.46104
           22017         67.7212         67.9841     775.623E-03        -2.34171
           22018         67.4376         67.8012         1.00938        -2.46637
           22019         68.1994         68.2404     326.705E-03        -2.35146
           22020         67.9130         68.0539     556.054E-03        -2.47479
           22021         68.6749         68.4974    -110.356E-03        -2.36435
           22022         68.3855         68.3070     114.632E-03        -2.48648
           22023         69.1480         68.7556    -535.525E-03        -2.38049
           22024         68.8554         68.5610    -314.855E-03        -2.50156
           22025         69.6188         69.0154    -948.773E-03        -2.40000
           22026         69.3229         68.8162    -732.384E-03        -2.52017
           22027         70.0876         69.2771        -1.35006        -2.42295
           22028         69.7881         69.0732        -1.13793        -2.54239
           22029         70.5547         69.5412        -1.73936        -2.44940
           22030         70.2514         69.3322        -1.53148        -2.56830
           22031         71.0202         69.8082        -2.11663        -2.47939
           22032         70.7130         69.5938        -1.91299        -2.59795
           22033         71.4844         70.0785        -2.48179        -2.51295
           22034         71.1731         69.8583        -2.28242        -2.63137
           22035         71.9476         70.3525        -2.83479        -2.55008
           22036         71.6320         70.1263        -2.63972        -2.66858
           22037         72.4099         70.6307        -3.17553        -2.59076
           22038         72.0900         70.3982        -2.98481        -2.70956
           22039         72.8717         70.9134        -3.50388        -2.63497
           22040         72.5472         70.6744        -3.31760        -2.75430
           22041         73.3332         71.2012        -3.81971        -2.68264
           22042         73.0040         70.9553        -3.63795        -2.80274
           22043         73.7944         71.4943        -4.12283        -2.73373
           22044         73.4605         71.2413        -3.94572        -2.85483
           22045         74.2557         71.7933        -4.41303        -2.78814
           22046         73.9169         71.5329        -4.24072        -2.91049
           22047         74.7171         72.0985        -4.69007        -2.84578
           22048         74.3733         71.8304        -4.52273        -2.96962
           22049         75.1787         72.4103        -4.95365        -2.90655
           22050         74.8300         72.1343        -4.79148        -3.03212
           22051         75.6406         72.7290        -5.20344        -2.97032
           22052         75.2869         72.4449        -5.04666        -3.09786
           22053         76.1028         73.0550        -5.43906        -3.03696
           22054         75.7442         72.7625        -5.28793        -3.16671
           22055         76.5654         73.3887        -5.66007        -3.10631
           22056         76.2019         73.0875        -5.51489        -3.23851
           22057         77.0283         73.7302        -5.86599        -3.17822
           22058         76.6599         73.4202        -5.72708        -3.31309
           22059         77.4913         74.0799        -6.05628        -3.25251
           22060         77.1181         73.7608        -5.92399        -3.39029
           22061         77.9543         74.4382        -6.23033        -3.32899
           22062         77.5764         74.1098        -6.10507        -3.46991
           22063         78.4172         74.8051        -6.38749        -3.40746
           22064         78.0347         74.4673        -6.26968        -3.55174
           22065         78.8795         75.1809        -6.52703        -3.48772
           22066         78.4927         74.8335        -6.41713        -3.63557
           22067         79.3410         75.5659        -6.64815        -3.56953
           22068         78.9500         75.2086        -6.54668        -3.72117
           22069         79.8014         75.9602        -6.74998        -3.65267
           22070         79.4064         75.5929        -6.65749        -3.80829
           22071         80.2601         76.3638        -6.83158        -3.73688
           22072         79.8615         75.9865        -6.74868        -3.89667
           22073         80.7167         76.7771        -6.89195        -3.82190
           22074         80.3146         76.3895        -6.81926        -3.98605
           22075         81.1704         77.1999        -6.92997        -3.90745
           22076         80.7654         76.8019        -6.86819        -4.07614
           22077         81.6208         77.6323        -6.94448        -3.99325
           22078         81.2131         77.2240        -6.89433        -4.16663
           22079         82.0670         78.0744        -6.93421        -4.07897
           22080         81.6570         77.6556        -6.89648        -4.25722
           22081         82.5083         78.5262        -6.89779        -4.16431
           22082         82.0965         78.0967        -6.87333        -4.34757
           22083         82.9438         78.9875        -6.83379        -4.24892
           22084         82.5306         78.5474        -6.82349        -4.43733
           22085         83.3725         79.4583        -6.74066        -4.33245
           22086         82.9584         79.0076        -6.74547        -4.52613
           22087         83.7934         79.9384        -6.61675        -4.41451
           22088         83.3790         79.4770        -6.63768        -4.61359
           22089         84.2054         80.4277        -6.46032        -4.49472
           22090         83.7912         79.9556        -6.49844        -4.69929
           22091         84.6073         80.9259        -6.26950        -4.57265
           22092         84.1940         80.4432        -6.32595        -4.78281
           22093         84.9979         81.4327        -6.04232        -4.64786
           22094         84.5861         80.9395        -6.11831        -4.86370
           22095         85.3758         81.9478        -5.77670        -4.71988
           22096         84.9662         81.4441        -5.87351        -4.94146
           22097         85.7397         82.4708        -5.47043        -4.78823
           22098         85.3330         81.9568        -5.58941        -5.01560
           22099         86.0880         83.0013        -5.12117        -4.85237
           22100         85.6850         82.4772        -5.26375        -5.08558
           22101         86.4192         83.5387        -4.72645        -4.91176
           22102         86.0207         83.0047        -4.89413        -5.15083
           22103         86.7317         84.0826        -4.28365        -4.96579
           22104         86.3385         83.5389        -4.47805        -5.21075
           22105         87.0239         84.6323        -3.79002        -5.01384
           22106         86.6368         84.0791        -4.01283        -5.26468
           22107         87.2940         85.1870        -3.24266        -5.05525
           22108         86.9139         84.6247        -3.49566        -5.31195
           22109         87.5403         85.7461        -2.63849        -5.08929
           22110         87.1680         85.1750        -2.92358        -5.35183
           22111         87.7608         86.3086        -1.97427        -5.11521
           22112         87.3974         85.7291        -2.29345        -5.38353
           22113         87.9540         86.8737        -1.24660        -5.13219
           22114         87.6002         86.2863        -1.60198        -5.40624
           22115         88.1178         87.4402    -451.877E-03        -5.13935
           22116         87.7746         86.8454    -845.691E-03        -5.41905
           22117         88.2504         88.0071     413.712E-03        -5.13578
           22118         87.9188         87.4055    -20.9092E-03        -5.42103
           22119         88.3501         88.5731         1.35416        -5.12047
           22120         88.0309         87.9653     876.236E-03        -5.41114
           22121         88.4151         89.1369         2.37369        -5.09235
           22122         88.1091         88.5237         1.84982        -5.38831
           22123         88.4438         89.6970         3.47677        -5.05027
           22124         88.1518         89.0791         2.90414        -5.35136
           22125         88.4345         90.2518         4.66810        -4.99301
           22126         88.1573         89.6302         4.04375        -5.29903
           22127         88.3861         90.7996         5.95265        -4.91925
           22128         88.1243         90.1752         5.27343        -5.23000
           22129         88.2973         91.3385         7.33567        -4.82758
           22130         88.0515         90.7123         6.59826        -5.14282
           22131         88.1674         91.8664         8.82270        -4.71650
           22132         87.9379         91.2397         8.02357        -5.03596
           22133         87.9961         92.3811         10.4196        -4.58440
           22134         87.7829         91.7551         9.55500        -4.90776
           22135         87.7834         92.8802         12.1325        -4.42955
           22136         87.5864         92.2564         11.1985        -4.75647
           22137         87.5301         93.3611         13.9681        -4.25012
           22138         87.3489         92.7409         12.9605        -4.58021
           22139         87.2378         93.8209         15.9331        -4.04417
           22140         87.0714         93.2061         14.8475        -4.37699
           22141         86.9091         94.2567         18.0350        -3.80960
           22142         86.7561         93.6491         16.8667        -4.14466
           22143         86.5479         94.6650         20.2814        -3.54423
           22144         86.4061         94.0666         19.0254        -3.88097
           22145         86.1594         95.0423         22.6806        -3.24572
           22146         86.0260         94.4553         21.3317        -3.58353
           22147         85.7508         95.3849         25.2412        -2.91160
           22148         85.6219         94.8114         23.7937        -3.24979
           22149         85.3314         95.6884         27.9724        -2.53929
           22150         85.2021         95.1311         26.4205        -2.87707
           22151         84.9131         95.9486         30.8837        -2.12605
           22152         84.7771         95.4101         29.2213        -2.46256
           22153         84.5112         96.1605         33.9855        -1.66903
           22154         84.3605         95.6438         32.2060        -2.00330
           22155         84.1443         96.3190         37.2885        -1.16523
           22156         83.9692         95.8272         35.3850        -1.49620
           22157         83.8355         96.4188         40.8041    -611.547E-03
           22158         83.6240         95.9551         38.7693    -937.998E-03
           22159         83.6122         96.4534         44.5448    -4.54879E-03
           22160         83.3503         96.0218         42.3706    -325.354E-03
           22161         53.9286         60.2249         17.3014        -2.82198
           22162         53.7205         60.0636         17.6364        -2.97308
           22163         53.4920         59.9301         17.9788        -2.82935
           22164         54.3745         60.5193         16.6268        -2.81587
           22165         54.1610         60.3579         16.9610        -2.96612
           22166         54.8292         60.8132         15.9548        -2.81046
           22167         54.6106         60.6517         16.2880        -2.96012
           22168         55.2921         61.1066         15.2857        -2.80531
           22169         55.0689         60.9451         15.6176        -2.95457
           22170         55.7628         61.3993         14.6196        -2.80002
           22171         55.5352         61.2378         14.9500        -2.94903
           22172         56.2406         61.6912         13.9571        -2.79426
           22173         56.0088         61.5298         14.2855        -2.94309
           22174         56.7247         61.9821         13.2983        -2.78776
           22175         56.4892         61.8208         13.6244        -2.93647
           22176         57.2144         62.2719         12.6439        -2.78034
           22177         56.9755         62.1107         12.9674        -2.92891
           22178         57.7090         62.5602         11.9943        -2.77186
           22179         57.4670         62.3991         12.3149        -2.92026
           22180         58.2076         62.8469         11.3501        -2.76227
           22181         57.9628         62.6860         11.6674        -2.91041
           22182         58.7096         63.1317         10.7119        -2.75157
           22183         58.4622         62.9710         11.0257        -2.89933
           22184         59.2140         63.4145         10.0801        -2.73980
           22185         58.9644         63.2539         10.3901        -2.88707
           22186         59.7202         63.6950         9.45541        -2.72709
           22187         59.4685         63.5344         9.76142        -2.87372
           22188         60.2275         63.9732         8.83838        -2.71358
           22189         59.9738         63.8126         9.14017        -2.85941
           22190         60.7351         64.2488         8.22953        -2.69948
           22191         60.4796         64.0880         8.52693        -2.84435
           22192         61.2424         64.5218         7.62939        -2.68501
           22193         60.9852         64.3608         7.92225        -2.82876
           22194         61.7488         64.7921         7.03842        -2.67043
           22195         61.4900         64.6307         7.32664        -2.81291
           22196         62.2538         65.0598         6.45708        -2.65603
           22197         61.9934         64.8978         6.74057        -2.79709
           22198         62.7569         65.3248         5.88576        -2.64209
           22199         62.4949         65.1620         6.16448        -2.78160
           22200         63.2577         65.5873         5.32484        -2.62893
           22201         62.9940         65.4235         5.59875        -2.76677
           22202         63.7559         65.8473         4.77464        -2.61686
           22203         63.4905         65.6822         5.04373        -2.75293
           22204         64.2511         66.1050         4.23542        -2.60618
           22205         63.9839         65.9384         4.49971        -2.74040
           22206         64.7432         66.3606         3.70743        -2.59719
           22207         64.4741         66.1922         3.96695        -2.72951
           22208         65.2320         66.6143         3.19086        -2.59020
           22209         64.9609         66.4438         3.44567        -2.72058
           22210         65.7174         66.8663         2.68588        -2.58547
           22211         65.4441         66.6935         2.93603        -2.71391
           22212         66.1995         67.1171         2.19262        -2.58327
           22213         65.9237         66.9416         2.43817        -2.70979
           22214         66.6781         67.3668         1.71117        -2.58385
           22215         66.3998         67.1884         1.95220        -2.70848
           22216         67.1535         67.6159         1.24161        -2.58743
           22217         66.8724         67.4342         1.47820        -2.71024
           22218         67.6256         67.8647     783.982E-03        -2.59422
           22219         67.3416         67.6795         1.01621        -2.71528
           22220         68.0947         68.1136     338.332E-03        -2.60439
           22221         67.8075         67.9245     566.260E-03        -2.72382
           22222         68.5609         68.3631    -95.3222E-03        -2.61811
           22223         68.2703         68.1697     128.378E-03        -2.73602
           22224         69.0245         68.6135    -516.967E-03        -2.63550
           22225         68.7302         68.4155    -297.434E-03        -2.75205
           22226         69.4857         68.8652    -926.595E-03        -2.65669
           22227         69.1875         68.6624    -711.177E-03        -2.77202
           22228         69.9447         69.1187        -1.32419        -2.68175
           22229         69.6425         68.9108        -1.11285        -2.79604
           22230         70.4017         69.3745        -1.70975        -2.71075
           22231         70.0953         69.1611        -1.50246        -2.82419
           22232         70.8572         69.6330        -2.08323        -2.74373
           22233         70.5463         69.4138        -1.87999        -2.85653
           22234         71.3112         69.8946        -2.44461        -2.78072
           22235         70.9957         69.6693        -2.24542        -2.89309
           22236         71.7642         70.1597        -2.79383        -2.82172
           22237         71.4439         69.9280        -2.59871        -2.93387
           22238         72.2163         70.4289        -3.13081        -2.86670
           22239         71.8910         70.1905        -2.93982        -2.97886
           22240         72.6678         70.7026        -3.45545        -2.91563
           22241         72.3374         70.4571        -3.26866        -3.02804
           22242         73.1189         70.9810        -3.76763        -2.96845
           22243         72.7833         70.7283        -3.58513        -3.08134
           22244         73.5698         71.2648        -4.06718        -3.02509
           22245         73.2289         71.0045        -3.88908        -3.13871
           22246         74.0207         71.5542        -4.35391        -3.08545
           22247         73.6744         71.2861        -4.18036        -3.20005
           22248         74.4718         71.8497        -4.62758        -3.14942
           22249         74.1199         71.5735        -4.45875        -3.26525
           22250         74.9231         72.1517        -4.88791        -3.21689
           22251         74.5658         71.8671        -4.72401        -3.33419
           22252         75.3748         72.4604        -5.13460        -3.28771
           22253         75.0119         72.1673        -4.97584        -3.40673
           22254         75.8269         72.7764        -5.36726        -3.36172
           22255         75.4584         72.4743        -5.21392        -3.48272
           22256         76.2793         73.0997        -5.58548        -3.43877
           22257         75.9053         72.7886        -5.43784        -3.56199
           22258         76.7321         73.4308        -5.78879        -3.51867
           22259         76.3527         73.1104        -5.64718        -3.64435
           22260         77.1851         73.7701        -5.97665        -3.60123
           22261         76.8003         73.4400        -5.84144        -3.72960
           22262         77.6382         74.1176        -6.14849        -3.68623
           22263         77.2481         73.7778        -6.02007        -3.81754
           22264         78.0912         74.4736        -6.30365        -3.77345
           22265         77.6960         74.1239        -6.18246        -3.90793
           22266         78.5437         74.8385        -6.44142        -3.86266
           22267         78.1436         74.4786        -6.32793        -4.00053
           22268         78.9955         75.2123        -6.56101        -3.95360
           22269         78.5906         74.8421        -6.45574        -4.09509
           22270         79.4463         75.5952        -6.66157        -4.04602
           22271         79.0368         75.2146        -6.56508        -4.19134
           22272         79.8954         75.9874        -6.74218        -4.13964
           22273         79.4818         75.5961        -6.65507        -4.28899
           22274         80.3425         76.3890        -6.80183        -4.23415
           22275         79.9249         75.9869        -6.72475        -4.38773
           22276         80.7869         76.8000        -6.83945        -4.32925
           22277         80.3657         76.3871        -6.77309        -4.48726
           22278         81.2279         77.2205        -6.85386        -4.42463
           22279         80.8035         76.7966        -6.79897        -4.58725
           22280         81.6649         77.6505        -6.84382        -4.51993
           22281         81.2377         77.2155        -6.80120        -4.68733
           22282         82.0970         78.0900        -6.80800        -4.61480
           22283         81.6674         77.6438        -6.77848        -4.78715
           22284         82.5234         78.5389        -6.74495        -4.70886
           22285         82.0919         78.0815        -6.72945        -4.88632
           22286         82.9431         78.9971        -6.65316        -4.80171
           22287         82.5101         78.5284        -6.65264        -4.98443
           22288         83.3550         79.4644        -6.53100        -4.89294
           22289         82.9212         78.9845        -6.54647        -5.08105
           22290         83.7581         79.9408        -6.37674        -4.98210
           22291         83.3241         79.4496        -6.40930        -5.17574
           22292         84.1512         80.4259        -6.18856        -5.06873
           22293         83.7175         79.9235        -6.23934        -5.26801
           22294         84.5330         80.9195        -5.96449        -5.15234
           22295         84.1003         80.4059        -6.03473        -5.35738
           22296         84.9022         81.4212        -5.70249        -5.23242
           22297         84.4712         80.8966        -5.79347        -5.44330
           22298         85.2573         81.9308        -5.40038        -5.30841
           22299         84.8288         81.3952        -5.51346        -5.52522
           22300         85.5970         82.4476        -5.05584        -5.37973
           22301         85.1716         81.9012        -5.19247        -5.60255
           22302         85.9196         82.9714        -4.66644        -5.44577
           22303         85.4982         82.4143        -4.82814        -5.67466
           22304         86.2236         83.5015        -4.22961        -5.50587
           22305         85.8070         82.9340        -4.41800        -5.74088
           22306         86.5072         84.0372        -3.74264        -5.55933
           22307         86.0963         83.4596        -3.95942        -5.80051
           22308         86.7688         84.5780        -3.20266        -5.60542
           22309         86.3644         83.9905        -3.44963        -5.85279
           22310         87.0066         85.1230        -2.60665        -5.64334
           22311         86.6096         84.5260        -2.88572        -5.89693
           22312         87.2188         85.6715        -1.95142        -5.67225
           22313         86.8300         85.0654        -2.26461        -5.93205
           22314         87.4035         86.2225        -1.23363        -5.69125
           22315         87.0240         85.6077        -1.58306        -5.95726
           22316         87.5589         86.7749    -449.727E-03        -5.69938
           22317         87.1895         86.1520    -837.655E-03        -5.97157
           22318         87.6832         87.3278     404.021E-03        -5.69559
           22319         87.3249         86.6973    -24.7898E-03        -5.97394
           22320         87.7746         87.8799         1.33154        -5.67880
           22321         87.4282         87.2424     859.332E-03        -5.96324
           22322         87.8313         88.4299         2.33697        -5.64780
           22323         87.4977         87.7861         1.81870        -5.93829
           22324         87.8517         88.9763         3.42470        -5.60134
           22325         87.5316         88.3270         2.85755        -5.89778
           22326         87.8342         89.5176         4.59935        -5.53805
           22327         87.5285         88.8638         3.98031        -5.84035
           22328         87.7775         90.0522         5.86577        -5.45647
           22329         87.4868         89.3946         5.19170        -5.76452
           22330         87.6806         90.5781         7.22914        -5.35505
           22331         87.4053         89.9180         6.49667        -5.66869
           22332         87.5425         91.0934         8.69486        -5.23210
           22333         87.2830         90.4318         7.90044        -5.55118
           22334         87.3629         91.5959         10.2687        -5.08584
           22335         87.1194         90.9342         9.40855        -5.41018
           22336         87.1420         92.0832         11.9567        -4.91436
           22337         86.9143         91.4228         11.0268        -5.24372
           22338         86.8805         92.5529         13.7653        -4.71561
           22339         86.6681         91.8952         12.7615        -5.04975
           22340         86.5799         93.0021         15.7013        -4.48743
           22341         86.3820         92.3489         14.6191        -4.82605
           22342         86.2429         93.4279         17.7718        -4.22749
           22343         86.0580         92.7809         16.6064        -4.57026
           22344         85.8732         93.8270         19.9846        -3.93335
           22345         85.6992         93.1883         18.7310        -4.27987
           22346         85.4761         94.1959         22.3475        -3.60240
           22347         85.3101         93.5676         21.0004        -3.95222
           22348         85.0588         94.5309         24.8691        -3.23190
           22349         84.8970         93.9153         23.4229        -3.58451
           22350         84.6305         94.8279         27.5585        -2.81893
           22351         84.4680         94.2276         26.0072        -3.17375
           22352         84.2032         95.0825         30.4252        -2.36045
           22353         84.0336         94.5002         28.7624        -2.71681
           22354         83.7920         95.2899         33.4792        -1.85327
           22355         83.6074         94.7286         31.6984        -2.21041
           22356         83.4157         95.4452         36.7311        -1.29402
           22357         83.2064         94.9079         34.8253        -1.65109
           22358         83.0974         95.5430         40.1923    -679.232E-03
           22359         82.8512         95.0330         38.1541        -1.03524
           22360         82.8646         95.5770         43.8751    -5.06565E-03
           22361         82.5676         95.0983         41.6962    -359.146E-03
           22362         53.9512         60.1960         17.2946        -3.11624
           22363         53.7456         60.0344         17.6286        -3.26717
           22364         53.5163         59.9019         17.9704        -3.12404
           22365         54.3956         60.4898         16.6209        -3.10970
           22366         54.1845         60.3279         16.9544        -3.25983
           22367         54.8490         60.7830         15.9493        -3.10382
           22368         54.6328         60.6211         16.2821        -3.25340
           22369         55.3108         61.0758         15.2802        -3.09807
           22370         55.0897         60.9138         15.6118        -3.24732
           22371         55.7803         61.3679         14.6137        -3.09203
           22372         55.5548         61.2059         14.9439        -3.24108
           22373         56.2569         61.6590         13.9505        -3.08532
           22374         56.0273         61.4972         14.2787        -3.23426
           22375         56.7398         61.9491         13.2908        -3.07766
           22376         56.5065         61.7874         13.6168        -3.22651
           22377         57.2281         62.2378         12.6352        -3.06884
           22378         56.9914         62.0763         12.9586        -3.21759
           22379         57.7211         62.5249         11.9845        -3.05873
           22380         57.4814         62.3636         12.3048        -3.20732
           22381         58.2180         62.8101         11.3390        -3.04726
           22382         57.9755         62.6490         11.6560        -3.19559
           22383         58.7178         63.0931         10.6995        -3.03446
           22384         58.4728         62.9323         11.0129        -3.18239
           22385         59.2198         63.3738         10.0667        -3.02039
           22386         58.9726         63.2131         10.3761        -3.16777
           22387         59.7232         63.6520         9.44102        -3.00518
           22388         59.4739         63.4914         9.74626        -3.15185
           22389         60.2272         63.9274         8.82322        -2.98903
           22390         59.9760         63.7668         9.12407        -3.13481
           22391         60.7311         64.1998         8.21384        -2.97217
           22392         60.4781         64.0392         8.51012        -3.11686
           22393         61.2341         64.4693         7.61342        -2.95487
           22394         60.9795         64.3084         7.90501        -3.09828
           22395         61.7359         64.7358         7.02248        -2.93742
           22396         61.4795         64.5744         7.30926        -3.07939
           22397         62.2356         64.9992         6.44147        -2.92016
           22398         61.9777         64.8371         6.72337        -3.06050
           22399         62.7330         65.2595         5.87082        -2.90342
           22400         62.4734         65.0966         6.14781        -3.04199
           22401         63.2276         65.5169         5.31088        -2.88755
           22402         62.9663         65.3529         5.58295        -3.02421
           22403         63.7190         65.7714         4.76199        -2.87291
           22404         63.4559         65.6061         5.02915        -3.00753
           22405         64.2071         66.0233         4.22442        -2.85983
           22406         63.9419         65.8563         4.48670        -2.99234
           22407         64.6915         66.2727         3.69839        -2.84867
           22408         64.4243         66.1038         3.95585        -2.97899
           22409         65.1722         66.5199         3.18409        -2.83975
           22410         64.9028         66.3488         3.43681        -2.96784
           22411         65.6492         66.7651         2.68166        -2.83339
           22412         65.3772         66.5915         2.92972        -2.95923
           22413         66.1223         67.0087         2.19122        -2.82988
           22414         65.8477         66.8322         2.43471        -2.95348
           22415         66.5917         67.2510         1.71284        -2.82948
           22416         66.3142         67.0713         1.95186        -2.95088
           22417         67.0575         67.4924         1.24657        -2.83246
           22418         66.7769         67.3092         1.48122        -2.95171
           22419         67.5198         67.7332     792.447E-03        -2.83904
           22420         67.2358         67.5461         1.02282        -2.95621
           22421         67.9787         67.9739     350.471E-03        -2.84940
           22422         67.6912         67.7826     576.659E-03        -2.96461
           22423         68.4346         68.2149    -79.3560E-03        -2.86373
           22424         68.1432         68.0191     142.738E-03        -2.97710
           22425         68.8876         68.4566    -497.047E-03        -2.88216
           22426         68.5921         68.2559    -278.968E-03        -2.99384
           22427         69.3379         68.6994    -902.618E-03        -2.90483
           22428         69.0382         68.4936    -688.486E-03        -3.01498
           22429         69.7860         68.9439        -1.29608        -2.93182
           22430         69.4817         68.7325        -1.08584        -3.04061
           22431         70.2319         69.1904        -1.67744        -2.96319
           22432         69.9229         68.9732        -1.47106        -3.07082
           22433         70.6762         69.4394        -2.04671        -2.99900
           22434         70.3622         69.2160        -1.84416        -3.10566
           22435         71.1189         69.6914        -2.40386        -3.03926
           22436         70.7998         69.4615        -2.20514        -3.14518
           22437         71.5605         69.9467        -2.74885        -3.08397
           22438         71.2361         69.7101        -2.55399        -3.18936
           22439         72.0012         70.2060        -3.08165        -3.13310
           22440         71.6713         69.9622        -2.89068        -3.23821
           22441         72.4413         70.4695        -3.40216        -3.18661
           22442         72.1056         70.2184        -3.21515        -3.29167
           22443         72.8809         70.7377        -3.71027        -3.24442
           22444         72.5395         70.4789        -3.52730        -3.34968
           22445         73.3204         71.0111        -4.00585        -3.30646
           22446         72.9731         70.7443        -3.82704        -3.41217
           22447         73.7599         71.2900        -4.28871        -3.37262
           22448         73.4066         71.0149        -4.11420        -3.47904
           22449         74.1995         71.5748        -4.55864        -3.44278
           22450         73.8401         71.2912        -4.38859        -3.55015
           22451         74.6395         71.8658        -4.81537        -3.51679
           22452         74.2740         71.5734        -4.64999        -3.62538
           22453         75.0798         72.1636        -5.05860        -3.59451
           22454         74.7082         71.8621        -4.89813        -3.70457
           22455         75.5206         72.4683        -5.28798        -3.67576
           22456         75.1429         72.1575        -5.13267        -3.78755
           22457         75.9618         72.7803        -5.50311        -3.76036
           22458         75.5780         72.4600        -5.35325        -3.87413
           22459         76.4034         73.0999        -5.70352        -3.84809
           22460         76.0136         72.7699        -5.55945        -3.96410
           22461         76.8453         73.4275        -5.88871        -3.93876
           22462         76.4495         73.0874        -5.75078        -4.05725
           22463         77.2874         73.7632        -6.05809        -4.03212
           22464         76.8857         73.4128        -5.92672        -4.15334
           22465         77.7294         74.1072        -6.21103        -4.12793
           22466         77.3221         73.7465        -6.08666        -4.25212
           22467         78.1711         74.4599        -6.34684        -4.22593
           22468         77.7583         74.0885        -6.22994        -4.35333
           22469         78.6122         74.8214        -6.46475        -4.32584
           22470         78.1940         74.4392        -6.35584        -4.45668
           22471         79.0522         75.1918        -6.56391        -4.42737
           22472         78.6290         74.7986        -6.46356        -4.56188
           22473         79.4908         75.5714        -6.64341        -4.53022
           22474         79.0627         75.1670        -6.55224        -4.66861
           22475         79.9273         75.9601        -6.70228        -4.63406
           22476         79.4948         75.5444        -6.62093        -4.77654
           22477         80.3613         76.3580        -6.73944        -4.73855
           22478         79.9246         75.9310        -6.66862        -4.88534
           22479         80.7920         76.7653        -6.75375        -4.84333
           22480         80.3515         76.3267        -6.69421        -4.99463
           22481         81.2188         77.1819        -6.74397        -4.94803
           22482         80.7749         76.7317        -6.69651        -5.10403
           22483         81.6407         77.6078        -6.70879        -5.05226
           22484         81.1939         77.1459        -6.67427        -5.21314
           22485         82.0570         78.0429        -6.64680        -5.15560
           22486         81.6078         77.5692        -6.62613        -5.32154
           22487         82.4666         78.4871        -6.55649        -5.25761
           22488         82.0155         78.0016        -6.55065        -5.42878
           22489         82.8686         78.9404        -6.43626        -5.35784
           22490         82.4161         78.4430        -6.44627        -5.53439
           22491         83.2619         79.4025        -6.28441        -5.45580
           22492         82.8086         78.8932        -6.31137        -5.63789
           22493         83.6451         79.8731        -6.09913        -5.55098
           22494         83.1917         79.3521        -6.14419        -5.73875
           22495         84.0172         80.3521        -5.87850        -5.64284
           22496         83.5642         79.8192        -5.94290        -5.83644
           22497         84.3767         80.8390        -5.62050        -5.73082
           22498         83.9249         80.2945        -5.70553        -5.93036
           22499         84.7222         81.3336        -5.32297        -5.81431
           22500         84.2724         80.7775        -5.43000        -6.01991
           22501         85.0523         81.8355        -4.98364        -5.89269
           22502         84.6051         81.2679        -5.11414        -6.10445
           22503         85.3654         82.3440        -4.60012        -5.96527
           22504         84.9217         81.7651        -4.75561        -6.18329
           22505         85.6598         82.8588        -4.16988        -6.03133
           22506         85.2205         82.2688        -4.35199        -6.25571
           22507         85.9340         83.3792        -3.69024        -6.09012
           22508         85.4998         82.7783        -3.90069        -6.32094
           22509         86.1862         83.9044        -3.15839        -6.14082
           22510         85.7580         83.2930        -3.39899        -6.37815
           22511         86.4146         84.4339        -2.57138        -6.18258
           22512         85.9933         83.8123        -2.84404        -6.42647
           22513         86.6174         84.9668        -1.92606        -6.21446
           22514         86.2040         84.3353        -2.23281        -6.46498
           22515         86.7928         85.5022        -1.21914        -6.23548
           22516         86.3881         84.8613        -1.56213        -6.49268
           22517         86.9389         86.0391    -447.165E-03        -6.24459
           22518         86.5439         85.3892    -828.643E-03        -6.50850
           22519         87.0540         86.5764     393.539E-03        -6.24066
           22520         86.6695         85.9182    -28.8291E-03        -6.51130
           22521         87.1361         87.1130         1.30681        -6.22247
           22522         86.7631         86.4470     841.031E-03        -6.49988
           22523         87.1836         87.6477         2.29672        -6.18874
           22524         86.8229         86.9746         1.78484        -6.47292
           22525         87.1948         88.1789         3.36755        -6.13807
           22526         86.8473         87.4995         2.80674        -6.42903
           22527         87.1682         88.7053         4.52382        -6.06898
           22528         86.8345         88.0204         3.91107        -6.36670
           22529         87.1024         89.2251         5.77029        -5.97986
           22530         86.7833         88.5357         5.10241        -6.28432
           22531         86.9964         89.7366         7.11199        -5.86901
           22532         86.6922         89.0437         6.38563        -6.18017
           22533         86.8492         90.2379         8.55424        -5.73458
           22534         86.5605         89.5427         7.76581        -6.05239
           22535         86.6606         90.7268         10.1027        -5.57462
           22536         86.3874         90.0305         9.24837        -5.89902
           22537         86.4306         91.2011         11.7632        -5.38702
           22538         86.1728         90.5051         10.8390        -5.71791
           22539         86.1600         91.6582         13.5421        -5.16954
           22540         85.9172         90.9641         12.5438        -5.50680
           22541         85.8504         92.0956         15.4460        -4.91979
           22542         85.6215         91.4050         14.3690        -5.26328
           22543         85.5042         92.5103         17.4820        -4.63522
           22544         85.2880         91.8250         16.3216        -4.98475
           22545         85.1252         92.8991         19.6575        -4.31313
           22546         84.9196         92.2211         18.4086        -4.66848
           22547         84.7188         93.2586         21.9804        -3.95063
           22548         84.5208         92.5901         20.6376        -4.31153
           22549         84.2919         93.5852         24.4591        -3.54471
           22550         84.0979         92.9285         23.0166        -3.91083
           22551         83.8539         93.8748         27.1023        -3.09214
           22552         83.6588         93.2324         25.5542        -3.46309
           22553         83.4168         94.1232         29.9196        -2.58956
           22554         83.2143         93.4979         28.2595        -2.96488
           22555         82.9955         94.3258         32.9207        -2.03342
           22556         82.7778         93.7204         31.1418        -2.41256
           22557         82.6090         94.4774         36.1161        -1.42001
           22558         82.3662         93.8953         34.2115        -1.80234
           22559         82.2803         94.5729         39.5171    -745.486E-03
           22560         82.0005         94.0173         37.4791        -1.13024
           22561         82.0372         94.6061         43.1357    -5.57907E-03
           22562         81.7062         94.0810         40.9560    -392.145E-03
           22563         53.9773         60.1658         17.2874        -3.40979
           22564         53.7745         60.0040         17.6204        -3.56050
           22565         53.5441         59.8725         17.9616        -3.41791
           22566         54.4202         60.4589         16.6145        -3.40290
           22567         54.2117         60.2968         16.9475        -3.55286
           22568         54.8723         60.7515         15.9433        -3.39656
           22569         54.6585         60.5893         16.2757        -3.54606
           22570         55.3329         61.0437         15.2740        -3.39020
           22571         55.1143         60.8814         15.6054        -3.53944
           22572         55.8012         61.3351         14.6070        -3.38333
           22573         55.5781         61.1729         14.9370        -3.53246
           22574         56.2766         61.6255         13.9427        -3.37557
           22575         56.0495         61.4634         14.2710        -3.52465
           22576         56.7582         61.9147         13.2818        -3.36659
           22577         56.5273         61.7528         13.6078        -3.51565
           22578         57.2451         62.2023         12.6249        -3.35617
           22579         57.0109         62.0407         12.9482        -3.50517
           22580         57.7364         62.4880         11.9727        -3.34418
           22581         57.4993         62.3267         12.2928        -3.49304
           22582         58.2313         62.7716         11.3257        -3.33056
           22583         57.9914         62.6106         11.6424        -3.47916
           22584         58.7288         63.0527         10.6848        -3.31534
           22585         58.4866         62.8920         10.9977        -3.46352
           22586         59.2281         63.3311         10.0506        -3.29862
           22587         58.9837         63.1707         10.3594        -3.44619
           22588         59.7283         63.6066         9.42387        -3.28056
           22589         59.4819         63.4464         9.72825        -3.42733
           22590         60.2287         63.8789         8.80516        -3.26138
           22591         59.9804         63.7188         9.10495        -3.40714
           22592         60.7284         64.1479         8.19514        -3.24136
           22593         60.4784         63.9877         8.49017        -3.38589
           22594         61.2268         64.4135         7.59440        -3.22082
           22595         60.9751         64.2531         7.88453        -3.36390
           22596         61.7232         64.6756         7.00346        -3.20009
           22597         61.4699         64.5147         7.28860        -3.34153
           22598         62.2172         64.9342         6.42282        -3.17956
           22599         61.9622         64.7727         6.70291        -3.31915
           22600         62.7081         65.1894         5.85290        -3.15960
           22601         62.4515         65.0269         6.12792        -3.29717
           22602         63.1958         65.4411         5.29408        -3.14062
           22603         62.9373         65.2775         5.56403        -3.27601
           22604         63.6797         65.6896         4.74667        -3.12301
           22605         63.4193         65.5246         5.01160        -3.25609
           22606         64.1597         65.9350         4.21095        -3.10716
           22607         63.8972         65.7682         4.47092        -3.23783
           22608         64.6357         66.1776         3.68712        -3.09346
           22609         64.3709         66.0087         3.94221        -3.22163
           22610         65.1074         66.4175         3.17536        -3.08227
           22611         64.8401         66.2463         3.42568        -3.20789
           22612         65.5749         66.6552         2.67580        -3.07394
           22613         65.3049         66.4812         2.92145        -3.19698
           22614         66.0381         66.8909         2.18852        -3.06880
           22615         65.7652         66.7138         2.42962        -3.18926
           22616         66.4973         67.1249         1.71358        -3.06714
           22617         66.2212         66.9445         1.95024        -3.18506
           22618         66.9525         67.3578         1.25099        -3.06923
           22619         66.6729         67.1736         1.48336        -3.18466
           22620         67.4038         67.5898     800.772E-03        -3.07533
           22621         67.1205         67.4015         1.02895        -3.18834
           22622         67.8515         67.8214     362.891E-03        -3.08563
           22623         67.5642         67.6286     587.004E-03        -3.19634
           22624         68.2959         68.0531    -62.6763E-03        -3.10034
           22625         68.0044         67.8555     157.478E-03        -3.20887
           22626         68.7372         68.2852    -475.971E-03        -3.11960
           22627         68.4411         68.0824    -259.678E-03        -3.22610
           22628         69.1756         68.5183    -877.037E-03        -3.14354
           22629         68.8748         68.3100    -664.520E-03        -3.24816
           22630         69.6116         68.7528        -1.26591        -3.17226
           22631         69.3058         68.5386        -1.05710        -3.27519
           22632         70.0454         68.9891        -1.64263        -3.20582
           22633         69.7343         68.7688        -1.43748        -3.30726
           22634         70.4773         69.2278        -2.00723        -3.24427
           22635         70.1608         69.0009        -1.80570        -3.34443
           22636         70.9076         69.4692        -2.35969        -3.28763
           22637         70.5854         69.2355        -2.16177        -3.38672
           22638         71.3367         69.7139        -2.70003        -3.33588
           22639         71.0087         69.4729        -2.50573        -3.43414
           22640         71.7649         69.9622        -3.02821        -3.38899
           22641         71.4308         69.7138        -2.83756        -3.48666
           22642         72.1923         70.2147        -3.34416        -3.44691
           22643         71.8520         69.9585        -3.15722        -3.54423
           22644         72.6194         70.4716        -3.64779        -3.50957
           22645         72.2728         70.2074        -3.46465        -3.60679
           22646         73.0463         70.7336        -3.93899        -3.57685
           22647         72.6932         70.4610        -3.75975        -3.67424
           22648         73.4732         71.0009        -4.21760        -3.64865
           22649         73.1135         70.7196        -4.04240        -3.74647
           22650         73.9003         71.2740        -4.48341        -3.72483
           22651         73.5340         70.9837        -4.31241        -3.82333
           22652         74.3278         71.5532        -4.73618        -3.80524
           22653         73.9548         71.2537        -4.56959        -3.90468
           22654         74.7557         71.8388        -4.97562        -3.88969
           22655         74.3760         71.5299        -4.81367        -3.99035
           22656         75.1840         72.1313        -5.20140        -3.97801
           22657         74.7977         71.8126        -5.04435        -4.08015
           22658         75.6129         72.4310        -5.41313        -4.06998
           22659         75.2199         72.1023        -5.26128        -4.17386
           22660         76.0423         72.7380        -5.61036        -4.16539
           22661         75.6427         72.3991        -5.46404        -4.27127
           22662         76.4721         73.0528        -5.79260        -4.26400
           22663         76.0659         72.7034        -5.65218        -4.37214
           22664         76.9020         73.3755        -5.95929        -4.36555
           22665         76.4894         73.0155        -5.82518        -4.47620
           22666         77.3321         73.7065        -6.10981        -4.46977
           22667         76.9132         73.3356        -5.98244        -4.58319
           22668         77.7619         74.0459        -6.24347        -4.57638
           22669         77.3369         73.6639        -6.12334        -4.69281
           22670         78.1911         74.3939        -6.35953        -4.68507
           22671         77.7603         74.0005        -6.24716        -4.80476
           22672         78.6194         74.7506        -6.45715        -4.79553
           22673         78.1829         74.3458        -6.35311        -4.91872
           22674         79.0464         75.1162        -6.53545        -4.90742
           22675         78.6045         74.6998        -6.44036        -5.03434
           22676         79.4714         75.4909        -6.59346        -5.02040
           22677         79.0245         75.0627        -6.50797        -5.15127
           22678         79.8939         75.8745        -6.63012        -5.13408
           22679         79.4423         75.4344        -6.55495        -5.26914
           22680         80.3133         76.2673        -6.64431        -5.24808
           22681         79.8573         75.8152        -6.58022        -5.38753
           22682         80.7288         76.6693        -6.63482        -5.36200
           22683         80.2689         76.2049        -6.58262        -5.50605
           22684         81.1396         77.0803        -6.60035        -5.47540
           22685         80.6763         76.6037        -6.56090        -5.62425
           22686         81.5448         77.5003        -6.53951        -5.58783
           22687         81.0785         77.0114        -6.51373        -5.74168
           22688         81.9435         77.9293        -6.45083        -5.69881
           22689         81.4747         77.4280        -6.43969        -5.85786
           22690         82.3345         78.3671        -6.33271        -5.80785
           22691         81.8639         77.8534        -6.33726        -5.97227
           22692         82.7169         78.8135        -6.18349        -5.91443
           22693         82.2449         78.2874        -6.20482        -6.08439
           22694         83.0894         79.2683        -6.00138        -6.01798
           22695         82.6168         78.7298        -6.04067        -6.19366
           22696         83.4508         79.7313        -5.78451        -6.11793
           22697         82.9781         79.1803        -5.84299        -6.29948
           22698         83.7996         80.2021        -5.53086        -6.21366
           22699         83.3277         79.6388        -5.60984        -6.40123
           22700         84.1346         80.6803        -5.23834        -6.30451
           22701         83.6640         80.1048        -5.33920        -6.49825
           22702         84.4541         81.1656        -4.90470        -6.38979
           22703         83.9858         80.5780        -5.02890        -6.58985
           22704         84.7567         81.6575        -4.52760        -6.46878
           22705         84.2914         81.0580        -4.67668        -6.67528
           22706         85.0408         82.1555        -4.10453        -6.54070
           22707         84.5792         81.5443        -4.28013        -6.75377
           22708         85.3046         82.6590        -3.63290        -6.60472
           22709         84.8477         82.0362        -3.83673        -6.82448
           22710         85.5464         83.1673        -3.10993        -6.65996
           22711         85.0951         82.5333        -3.34382        -6.88653
           22712         85.7645         83.6798        -2.53271        -6.70549
           22713         85.3196         83.0348        -2.79859        -6.93898
           22714         85.9570         84.1955        -1.89819        -6.74031
           22715         85.5195         83.5400        -2.19808        -6.98082
           22716         86.1222         84.7138        -1.20313        -6.76335
           22717         85.6929         84.0480        -1.53918        -7.01098
           22718         86.2581         85.2336    -444.147E-03        -6.77347
           22719         85.8380         84.5581    -818.626E-03        -7.02832
           22720         86.3630         85.7539     382.348E-03        -6.76945
           22721         85.9530         85.0693    -32.9640E-03        -7.03161
           22722         86.4350         86.2735         1.28011        -6.74998
           22723         86.0360         85.5803     821.435E-03        -7.01954
           22724         86.4724         86.7913         2.25311        -6.71366
           22725         86.0853         86.0902         1.74838        -6.99071
           22726         86.4735         87.3058         3.30553        -6.65897
           22727         86.0991         86.5976         2.75191        -6.94360
           22728         86.4369         87.8158         4.44177        -6.58432
           22729         86.0759         87.1012         3.83625        -6.87659
           22730         86.3611         88.3194         5.66650        -6.48796
           22731         86.0142         87.5994         5.00587        -6.78795
           22732         86.2451         88.8151         6.98462        -6.36803
           22733         85.9128         88.0907         6.26551        -6.67581
           22734         86.0881         89.3009         8.40130        -6.22255
           22735         85.7707         88.5733         7.62012        -6.53818
           22736         85.8895         89.7749         9.92202        -6.04938
           22737         85.5872         89.0453         9.07496        -6.37291
           22738         85.6497         90.2348         11.5526        -5.84623
           22739         85.3624         89.5045         10.6356        -6.17770
           22740         85.3692         90.6782         13.2991        -5.61067
           22741         85.0964         89.9488         12.3079        -5.95009
           22742         85.0496         91.1025         15.1681        -5.34008
           22743         84.7905         90.3756         14.0982        -5.68746
           22744         84.6934         91.5049         17.1664        -5.03169
           22745         84.4466         90.7824         16.0129        -5.38701
           22746         84.3044         91.8823         19.3013        -4.68253
           22747         84.0678         91.1661         18.0591        -5.04574
           22748         83.8878         92.2315         21.5804        -4.28948
           22749         83.6586         91.5238         20.2442        -4.66048
           22750         83.4507         92.5488         24.0121        -3.84921
           22751         83.2251         91.8518         22.5760        -4.22787
           22752         83.0023         92.8303         26.6049        -3.35821
           22753         82.7754         92.1467         25.0628        -3.74433
           22754         82.5545         93.0719         29.3681        -2.81278
           22755         82.3200         92.4043         27.7136        -3.20611
           22756         82.1225         93.2689         32.3113        -2.20904
           22757         81.8725         92.6204         30.5376        -2.60925
           22758         81.7251         93.4166         35.4450        -1.54290
           22759         81.4497         92.7902         33.5449        -1.94959
           22760         81.3855         93.5096         38.7799    -810.136E-03
           22761         81.0727         92.9089         36.7458        -1.22278
           22762         81.1315         93.5420         42.3283    -6.08488E-03
           22763         80.7672         92.9708         40.1517    -424.316E-03
           22764         54.0073         60.1348         17.2799        -3.70264
           22765         53.8074         59.9730         17.6121        -3.85306
           22766         53.5759         59.8422         17.9526        -3.71095
           22767         54.4488         60.4272         16.6078        -3.69546
           22768         54.2430         60.2651         16.9402        -3.84524
           22769         54.8995         60.7192         15.9368        -3.68869
           22770         54.6885         60.5570         16.2689        -3.83810
           22771         55.3589         61.0108         15.2671        -3.68169
           22772         55.1429         60.8485         15.5984        -3.83095
           22773         55.8261         61.3015         14.5992        -3.67393
           22774         55.6056         61.1394         14.9292        -3.82317
           22775         56.3003         61.5911         13.9337        -3.66498
           22776         56.0758         61.4292         14.2620        -3.81427
           22777         56.7805         61.8794         13.2714        -3.65450
           22778         56.5524         61.7177         13.5973        -3.80384
           22779         57.2659         62.1658         12.6128        -3.64225
           22780         57.0345         62.0045         12.9360        -3.79159
           22781         57.7555         62.4501         11.9587        -3.62811
           22782         57.5212         62.2892         12.2787        -3.77733
           22783         58.2482         62.7320         11.3100        -3.61202
           22784         58.0113         62.5715         11.6264        -3.76098
           22785         58.7432         63.0110         10.6674        -3.59403
           22786         58.5041         62.8509         10.9797        -3.74254
           22787         59.2395         63.2869         10.0317        -3.57427
           22788         58.9983         63.1272         10.3397        -3.72211
           22789         59.7362         63.5595         9.40356        -3.55294
           22790         59.4931         63.4000         9.70698        -3.69988
           22791         60.2325         63.8284         8.78378        -3.53030
           22792         59.9877         63.6691         9.08238        -3.67610
           22793         60.7276         64.0936         8.17301        -3.50668
           22794         60.4811         63.9343         8.46662        -3.65109
           22795         61.2207         64.3549         7.57188        -3.48243
           22796         60.9726         64.1954         7.86036        -3.62521
           22797         61.7113         64.6122         6.98094        -3.45796
           22798         61.4616         64.4523         7.26421        -3.59887
           22799         62.1988         64.8655         6.40070        -3.43370
           22800         61.9474         64.7050         6.67872        -3.57252
           22801         62.6827         65.1149         5.83160        -3.41007
           22802         62.4296         64.9535         6.10437        -3.54660
           22803         63.1626         65.3604         5.27401        -3.38753
           22804         62.9076         65.1978         5.54157        -3.52159
           22805         63.6382         65.6022         4.72827        -3.36653
           22806         63.3812         65.4381         4.99067        -3.49797
           22807         64.1094         65.8405         4.19461        -3.34750
           22808         63.8501         65.6745         4.45196        -3.47620
           22809         64.5759         66.0755         3.67325        -3.33086
           22810         64.3141         65.9073         3.92565        -3.45673
           22811         65.0376         66.3076         3.16434        -3.31702
           22812         64.7732         66.1368         3.41191        -3.44000
           22813         65.4947         66.5369         2.66797        -3.30637
           22814         65.2273         66.3632         2.91086        -3.42641
           22815         65.9471         66.7639         2.18421        -3.29926
           22816         65.6765         66.5870         2.42256        -3.41637
           22817         66.3950         66.9890         1.71308        -3.29601
           22818         66.1208         66.8084         1.94705        -3.41022
           22819         66.8384         67.2125         1.25459        -3.29693
           22820         66.5605         67.0279         1.48432        -3.40828
           22821         67.2778         67.4349     808.692E-03        -3.30226
           22822         66.9957         67.2459         1.03433        -3.41084
           22823         67.7132         67.6566     375.344E-03        -3.31225
           22824         67.4267         67.4628     597.032E-03        -3.41817
           22825         68.1449         67.8781    -45.5161E-03        -3.32709
           22826         67.8539         67.6792     172.351E-03        -3.43047
           22827         68.5734         68.0998    -453.959E-03        -3.34694
           22828         68.2774         67.8955    -239.797E-03        -3.44793
           22829         68.9988         68.3222    -850.060E-03        -3.37193
           22830         68.6976         68.1121    -639.498E-03        -3.47071
           22831         69.4216         68.5458        -1.23389        -3.40217
           22832         69.1149         68.3295        -1.02684        -3.49891
           22833         69.8420         68.7711        -1.60550        -3.43772
           22834         69.5295         68.5482        -1.40191        -3.53263
           22835         70.2605         68.9985        -1.96497        -3.47863
           22836         69.9420         68.7687        -1.76477        -3.57192
           22837         70.6773         69.2284        -2.31230        -3.52489
           22838         70.3526         68.9915        -2.11549        -3.61680
           22839         71.0927         69.4615        -2.64753        -3.57651
           22840         70.7617         69.2169        -2.45410        -3.66726
           22841         71.5072         69.6980        -2.97065        -3.63343
           22842         71.1696         69.4456        -2.78062        -3.72328
           22843         71.9210         69.9384        -3.28161        -3.69560
           22844         71.5766         69.6779        -3.09504        -3.78479
           22845         72.3344         70.1832        -3.58036        -3.76291
           22846         71.9831         69.9142        -3.39732        -3.85172
           22847         72.7476         70.4328        -3.86678        -3.83528
           22848         72.3893         70.1550        -3.68738        -3.92395
           22849         73.1608         70.6876        -4.14074        -3.91255
           22850         72.7954         70.4008        -3.96512        -4.00136
           22851         73.5743         70.9479        -4.40206        -3.99458
           22852         73.2017         70.6518        -4.23038        -4.08380
           22853         73.9881         71.2142        -4.65051        -4.08120
           22854         73.6083         70.9085        -4.48297        -4.17109
           22855         74.4025         71.4868        -4.88582        -4.17222
           22856         74.0154         71.1712        -4.72266        -4.26306
           22857         74.8174         71.7661        -5.10768        -4.26742
           22858         74.4230         71.4403        -4.94915        -4.35949
           22859         75.2329         72.0522        -5.31571        -4.36660
           22860         74.8313         71.7160        -5.16211        -4.46016
           22861         75.6490         72.3457        -5.50949        -4.46949
           22862         75.2401         71.9988        -5.36115        -4.56481
           22863         76.0655         72.6466        -5.68853        -4.57585
           22864         75.6495         72.2889        -5.54583        -4.67320
           22865         76.4823         72.9554        -5.85229        -4.68539
           22866         76.0594         72.5865        -5.71564        -4.78504
           22867         76.8993         73.2721        -6.00017        -4.79783
           22868         76.4695         72.8919        -5.87002        -4.90003
           22869         77.3162         73.5970        -6.13150        -4.91285
           22870         76.8797         73.2053        -6.00833        -5.01787
           22871         77.7326         73.9304        -6.24555        -5.03013
           22872         77.2897         73.5269        -6.12989        -5.13821
           22873         78.1481         74.2723        -6.34150        -5.14932
           22874         77.6990         73.8568        -6.23394        -5.26072
           22875         78.5624         74.6228        -6.41849        -5.27005
           22876         78.1074         74.1953        -6.31964        -5.38502
           22877         78.9749         74.9822        -6.47556        -5.39195
           22878         78.5143         74.5424        -6.38608        -5.51073
           22879         79.3850         75.3504        -6.51169        -5.51462
           22880         78.9191         74.8982        -6.43230        -5.63744
           22881         79.7920         75.7275        -6.52576        -5.63764
           22882         79.3212         75.2627        -6.45722        -5.76473
           22883         80.1953         76.1135        -6.51658        -5.76056
           22884         79.7200         75.6361        -6.45972        -5.89215
           22885         80.5939         76.5084        -6.48288        -5.88292
           22886         80.1147         76.0182        -6.43856        -6.01922
           22887         80.9871         76.9121        -6.42329        -6.00423
           22888         80.5043         76.4090        -6.39244        -6.14547
           22889         81.3738         77.3245        -6.33636        -6.12399
           22890         80.8880         76.8085        -6.31996        -6.27036
           22891         81.7529         77.7455        -6.22053        -6.24165
           22892         81.2648         77.2165        -6.21963        -6.39336
           22893         82.1235         78.1749        -6.07416        -6.35664
           22894         81.6335         77.6330        -6.08986        -6.51390
           22895         82.4843         78.6125        -5.89549        -6.46838
           22896         81.9931         78.0576        -5.92897        -6.63136
           22897         82.8340         79.0581        -5.68268        -6.57623
           22898         82.3423         78.4902        -5.73518        -6.74512
           22899         83.1713         79.5113        -5.43376        -6.67952
           22900         82.6797         78.9305        -5.50659        -6.85452
           22901         83.4947         79.9718        -5.14665        -6.77756
           22902         83.0041         79.3782        -5.24120        -6.95883
           22903         83.8027         80.4391        -4.81916        -6.86960
           22904         83.3138         79.8328        -4.93691        -7.05731
           22905         84.0939         80.9130        -4.44899        -6.95486
           22906         83.6075         80.2941        -4.59147        -7.14918
           22907         84.3666         81.3927        -4.03370        -7.03251
           22908         83.8835         80.7614        -4.20255        -7.23360
           22909         84.6191         81.8778        -3.57071        -7.10165
           22910         84.1402         81.2344        -3.76766        -7.30967
           22911         84.8497         82.3677        -3.05733        -7.16134
           22912         84.3758         81.7123        -3.28421        -7.37645
           22913         85.0565         82.8616        -2.49070        -7.21058
           22914         84.5886         82.1945        -2.74943        -7.43294
           22915         85.2379         83.3588        -1.86784        -7.24830
           22916         84.7768         82.6804        -2.16045        -7.47806
           22917         85.3919         83.8584        -1.18559        -7.27335
           22918         84.9386         83.1692        -1.51423        -7.51067
           22919         85.5167         84.3596    -440.629E-03        -7.28451
           22920         85.0722         83.6599    -807.579E-03        -7.52953
           22921         85.6105         84.8613     370.528E-03        -7.28046
           22922         85.1756         84.1517    -37.1307E-03        -7.53336
           22923         85.6715         85.3625         1.25155        -7.25981
           22924         85.2471         84.6435     800.649E-03        -7.52073
           22925         85.6979         85.8619         2.20630        -7.22105
           22926         85.2850         85.1342         1.70947        -7.49015
           22927         85.6881         86.3583         3.23885        -7.16255
           22928         85.2874         85.6226         2.69325        -7.44000
           22929         85.6406         86.8503         4.35350        -7.08259
           22930         85.2528         86.1074         3.75611        -7.36855
           22931         85.5540         87.3363         5.55476        -6.97931
           22932         85.1798         86.5871         4.90239        -7.27395
           22933         85.4272         87.8147         6.84742        -6.85070
           22934         85.0672         87.0602         6.13668        -7.15419
           22935         85.2593         88.2837         8.23649        -6.69462
           22936         84.9139         87.5250         7.46380        -7.00713
           22937         85.0501         88.7413         9.72732        -6.50877
           22938         84.7193         87.9797         8.88886        -6.83048
           22939         84.7995         89.1855         11.3255        -6.29069
           22940         84.4833         88.4222         10.4173        -6.62176
           22941         84.5083         89.6138         13.0371        -6.03774
           22942         84.2063         88.8504         12.0547        -6.37834
           22943         84.1781         90.0238         14.8683        -5.74711
           22944         83.8893         89.2620         13.8072        -6.09738
           22945         83.8112         90.4128         16.8258        -5.41577
           22946         83.5343         89.6543         15.6812        -5.77586
           22947         83.4114         90.7779         18.9167        -5.04054
           22948         83.1445         90.0246         17.6835        -5.41057
           22949         82.9839         91.1157         21.1486        -4.61802
           22950         82.7241         90.3698         19.8212        -4.99808
           22951         82.5358         91.4228         23.5294        -4.14459
           22952         82.2793         90.6866         22.1021        -4.53473
           22953         82.0763         91.6954         26.0676        -3.61643
           22954         81.8182         90.9715         24.5342        -4.01668
           22955         81.6173         91.9295         28.7722        -3.02954
           22956         81.3514         91.2205         27.1262        -3.43985
           22957         81.1739         92.1205         31.6527        -2.37966
           22958         80.8922         91.4296         29.8873        -2.79994
           22959         80.7650         92.2637         34.7192        -1.66237
           22960         80.4577         91.5940         32.8270        -2.09244
           22961         80.4138         92.3540         37.9825    -873.054E-03
           22962         80.0689         91.7089         35.9559        -1.31262
           22963         80.1484         92.3855         41.4545    -6.58663E-03
           22964         79.7517         91.7689         39.2849    -455.597E-03
           22965         54.0417         60.1034         17.2722        -3.99479
           22966         53.8448         59.9419         17.6036        -4.14487
           22967         53.6119         59.8115         17.9435        -4.00318
           22968         54.4816         60.3951         16.6008        -3.98742
           22969         54.2789         60.2334         16.9328        -4.13697
           22970         54.9311         60.6866         15.9297        -3.98024
           22971         54.7230         60.5247         16.2617        -4.12956
           22972         55.3893         60.9776         15.2594        -3.97257
           22973         55.1763         60.8156         15.5907        -4.12187
           22974         55.8554         61.2677         14.5903        -3.96383
           22975         55.6379         61.1059         14.9205        -4.11324
           22976         56.3284         61.5566         13.9233        -3.95354
           22977         56.1069         61.3950         14.2517        -4.10311
           22978         56.8073         61.8438         13.2591        -3.94136
           22979         56.5823         61.6827         13.5851        -4.09107
           22980         57.2911         62.1291         12.5985        -3.92702
           22981         57.0629         61.9684         12.9216        -4.07680
           22982         57.7788         62.4119         11.9423        -3.91041
           22983         57.5478         62.2517         12.2621        -4.06011
           22984         58.2693         62.6918         11.2915        -3.89149
           22985         58.0359         62.5322         11.6075        -4.04093
           22986         58.7616         62.9686         10.6469        -3.87033
           22987         58.5260         62.8095         10.9586        -4.01929
           22988         59.2546         63.2418         10.0093        -3.84710
           22989         59.0171         63.0833         10.3165        -3.99533
           22990         59.7475         63.5112         9.37964        -3.82204
           22991         59.5082         63.3530         9.68198        -3.96926
           22992         60.2393         63.7765         8.75862        -3.79545
           22993         59.9984         63.6185         9.05587        -3.94139
           22994         60.7293         64.0374         8.14697        -3.76773
           22995         60.4868         63.8796         8.43897        -3.91209
           22996         61.2166         64.2940         7.54538        -3.73927
           22997         60.9726         64.1360         7.83199        -3.88179
           22998         61.7007         64.5460         6.95441        -3.71056
           22999         61.4552         64.3877         7.23558        -3.85096
           23000         62.1810         64.7936         6.37461        -3.68205
           23001         61.9338         64.6346         6.65031        -3.82009
           23002         62.6571         65.0366         5.80643        -3.65426
           23003         62.4081         64.8767         6.07667        -3.78972
           23004         63.1285         65.2753         5.25023        -3.62769
           23005         62.8775         65.1142         5.51508        -3.76035
           23006         63.5949         65.5098         4.70634        -3.60282
           23007         63.3418         65.3471         4.96589        -3.73253
           23008         64.0563         65.7403         4.17499        -3.58015
           23009         63.8008         65.5756         4.42937        -3.70678
           23010         64.5124         65.9671         3.65638        -3.56015
           23011         64.2543         65.8001         3.90572        -3.68358
           23012         64.9632         66.1904         3.15062        -3.54327
           23013         64.7022         66.0207         3.39509        -3.66343
           23014         65.4088         66.4107         2.65780        -3.52991
           23015         65.1446         66.2379         2.89757        -3.64677
           23016         65.8493         66.6282         2.17794        -3.52047
           23017         65.5816         66.4519         2.41318        -3.63402
           23018         66.2848         66.8435         1.71104        -3.51531
           23019         66.0132         66.6633         1.94194        -3.62556
           23020         66.7155         67.0568         1.25706        -3.51472
           23021         66.4398         66.8724         1.48378        -3.62175
           23022         67.1418         67.2688     815.930E-03        -3.51901
           23023         66.8616         67.0797         1.03866        -3.62288
           23024         67.5637         67.4797     387.569E-03        -3.52840
           23025         67.2788         67.2856     606.467E-03        -3.62924
           23026         67.9818         67.6902    -28.1204E-03        -3.54311
           23027         67.6917         67.4907     187.098E-03        -3.64104
           23028         68.3963         67.9006    -431.243E-03        -3.56331
           23029         68.1008         67.6953    -219.566E-03        -3.65849
           23030         68.8076         68.1115    -821.907E-03        -3.58913
           23031         68.5064         67.9001    -613.650E-03        -3.68173
           23032         69.2160         68.3234        -1.20021        -3.62067
           23033         68.9089         68.1055    -995.276E-03        -3.71089
           23034         69.6220         68.5367        -1.56626        -3.65800
           23035         69.3087         68.3119        -1.36456        -3.74604
           23036         70.0258         68.7519        -1.92012        -3.70116
           23037         69.7060         68.5199        -1.72160        -3.78724
           23038         70.4280         68.9695        -2.26187        -3.75015
           23039         70.1014         68.7299        -2.06649        -3.83451
           23040         70.8287         69.1899        -2.59154        -3.80494
           23041         70.4953         68.9425        -2.39930        -3.88782
           23042         71.2284         69.4137        -2.90915        -3.86549
           23043         70.8878         69.1580        -2.72007        -3.94714
           23044         71.6274         69.6412        -3.21470        -3.93171
           23045         71.2795         69.3770        -3.02881        -4.01241
           23046         72.0259         69.8729        -3.50813        -4.00352
           23047         71.6706         69.5999        -3.32551        -4.08351
           23048         72.4243         70.1092        -3.78937        -4.08077
           23049         72.0615         69.8270        -3.61012        -4.16034
           23050         72.8228         70.3505        -4.05830        -4.16334
           23051         72.4523         70.0589        -3.88256        -4.24275
           23052         73.2216         70.5971        -4.31476        -4.25104
           23053         72.8432         70.2958        -4.14268        -4.33058
           23054         73.6207         70.8496        -4.55854        -4.34369
           23055         73.2346         70.5382        -4.39032        -4.42363
           23056         74.0205         71.1081        -4.78939        -4.44108
           23057         73.6265         70.7865        -4.62527        -4.52170
           23058         74.4209         71.3731        -5.00701        -4.54298
           23059         74.0191         71.0409        -4.84725        -4.62457
           23060         74.8219         71.6448        -5.21104        -4.64916
           23061         74.4123         71.3018        -5.05594        -4.73199
           23062         75.2236         71.9236        -5.40109        -4.75934
           23063         74.8062         71.5696        -5.25098        -4.84369
           23064         75.6258         72.2096        -5.57668        -4.87325
           23065         75.2008         71.8443        -5.43193        -4.95939
           23066         76.0285         72.5033        -5.73728        -4.99058
           23067         75.5959         72.1264        -5.59832        -5.07879
           23068         76.4314         72.8047        -5.88232        -5.11102
           23069         75.9913         72.4161        -5.74958        -5.20157
           23070         76.8342         73.1141        -6.01114        -5.23424
           23071         76.3870         72.7136        -5.88512        -5.32739
           23072         77.2368         73.4317        -6.12302        -5.35988
           23073         76.7825         73.0190        -6.00426        -5.45591
           23074         77.6386         73.7576        -6.21718        -5.48758
           23075         77.1775         73.3325        -6.10626        -5.58674
           23076         78.0392         74.0920        -6.29276        -5.61693
           23077         77.5717         73.6543        -6.19030        -5.71949
           23078         78.4381         74.4349        -6.34882        -5.74754
           23079         77.9644         73.9845        -6.25549        -5.85374
           23080         78.8348         74.7864        -6.38437        -5.87897
           23081         78.3552         74.3232        -6.30089        -5.98906
           23082         79.2285         75.1466        -6.39830        -6.01077
           23083         78.7435         74.6703        -6.32544        -6.12501
           23084         79.6185         75.5155        -6.38946        -6.14247
           23085         79.1285         75.0260        -6.32804        -6.26109
           23086         80.0040         75.8929        -6.35659        -6.27356
           23087         79.5094         75.3902        -6.30749        -6.39680
           23088         80.3841         76.2790        -6.29835        -6.40353
           23089         79.8855         75.7629        -6.26249        -6.53162
           23090         80.7578         76.6736        -6.21330        -6.53184
           23091         80.2557         76.1441        -6.19168        -6.66501
           23092         81.1242         77.0765        -6.09993        -6.65789
           23093         80.6191         76.5335        -6.09360        -6.79636
           23094         81.4820         77.4876        -5.95662        -6.78109
           23095         80.9746         76.9310        -5.96669        -6.92508
           23096         81.8301         77.9066        -5.78165        -6.90080
           23097         81.3210         77.3366        -5.80930        -7.05053
           23098         82.1672         78.3335        -5.57321        -7.01635
           23099         81.6570         77.7499        -5.61968        -7.17202
           23100         82.4919         78.7677        -5.32935        -7.12702
           23101         81.9814         78.1706        -5.39596        -7.28884
           23102         82.8029         79.2090        -5.04806        -7.23206
           23103         82.2928         78.5986        -5.13620        -7.40025
           23104         83.0985         79.6571        -4.72718        -7.33069
           23105         82.5897         79.0333        -4.83833        -7.50544
           23106         83.3774         80.1114        -4.36445        -7.42207
           23107         82.8705         79.4744        -4.50016        -7.60358
           23108         83.6378         80.5715        -3.95749        -7.50530
           23109         83.1338         79.9215        -4.11939        -7.69377
           23110         83.8780         81.0368        -3.50378        -7.57944
           23111         83.3777         80.3740        -3.69360        -7.77506
           23112         84.0964         81.5068        -3.00067        -7.64348
           23113         83.6006         80.8313        -3.22024        -7.84646
           23114         84.2911         81.9807        -2.44540        -7.69636
           23115         83.8008         81.2929        -2.69664        -7.90690
           23116         84.4603         82.4578        -1.83503        -7.73694
           23117         83.9765         81.7580        -2.11998        -7.95523
           23118         84.6023         82.9373        -1.16650        -7.76398
           23119         84.1257         82.2259        -1.48729        -7.99025
           23120         84.7151         83.4184    -436.567E-03        -7.77620
           23121         84.2468         82.6958    -795.479E-03        -8.01065
           23122         84.7969         83.9000     358.164E-03        -7.77220
           23123         84.3378         83.1667    -41.2664E-03        -8.01504
           23124         84.8460         84.3812         1.22126        -7.75047
           23125         84.3969         83.6378     778.780E-03        -8.00193
           23126         84.8605         84.8608         2.15647        -7.70942
           23127         84.4224         84.1078         1.66826        -7.96974
           23128         84.8389         85.3375         3.16775        -7.64733
           23129         84.4126         84.5757         2.63098        -7.91674
           23130         84.7796         85.8101         4.25928        -7.56234
           23131         84.3658         85.0402         3.67093        -7.84110
           23132         84.6813         86.2770         5.43542        -7.45247
           23133         84.2806         85.5000         4.79231        -7.74085
           23134         84.5429         86.7367         6.70082        -7.31558
           23135         84.1559         85.9534         5.99957        -7.61385
           23136         84.3635         87.1874         8.06034        -7.14939
           23137         83.9906         86.3990         7.29737        -7.45784
           23138         84.1427         87.6273         9.51915        -6.95144
           23139         83.7841         86.8350         8.69064        -7.27035
           23140         83.8806         88.0544         11.0827        -6.71909
           23141         83.5362         87.2595         10.1846        -7.04876
           23142         83.5780         88.4664         12.7568        -6.44951
           23143         83.2473         87.6704         11.7848        -6.79025
           23144         83.2363         88.8609         14.5474        -6.13967
           23145         82.9185         88.0654         13.4970        -6.49179
           23146         82.8580         89.2354         16.4613        -5.78636
           23147         82.5518         88.4420         15.3275        -6.15016
           23148         82.4467         89.5869         18.5050        -5.38612
           23149         82.1501         88.7977         17.2828        -5.76189
           23150         82.0078         89.9123         20.6861        -4.93529
           23151         81.7179         89.1294         19.3700        -5.32332
           23152         81.5480         90.2083         23.0123        -4.42998
           23153         81.2613         89.4340         21.5963        -4.83052
           23154         81.0768         90.4713         25.4917        -3.86607
           23155         80.7883         89.7081         23.9698        -4.27935
           23156         80.6059         90.6971         28.1333        -3.23921
           23157         80.3093         89.9478         26.4988        -3.66542
           23158         80.1506         90.8816         30.9463        -2.54482
           23159         79.8381         90.1492         29.1923        -2.98408
           23160         79.7297         91.0200         33.9405        -1.77810
           23161         79.3913         90.3076         32.0598        -2.23048
           23162         79.3665         91.1073         37.1266    -934.031E-03
           23163         78.9903         90.4185         35.1113        -1.39948
           23164         79.0892         91.1378         40.5163    -7.07838E-03
           23165         78.6609         90.4765         38.3576    -485.804E-03
           23166         54.0808         60.0722         17.2645        -4.28629
           23167         53.8873         59.9113         17.5953        -4.43598
           23168         53.6527         59.7810         17.9344        -4.29460
           23169         54.5194         60.3633         16.5936        -4.27881
           23170         54.3199         60.2022         16.9252        -4.42813
           23171         54.9677         60.6543         15.9221        -4.27126
           23172         54.7628         60.4930         16.2540        -4.42051
           23173         55.4248         60.9448         15.2508        -4.26288
           23174         55.2150         60.7835         15.5823        -4.41227
           23175         55.8898         61.2343         14.5803        -4.25305
           23176         55.6756         61.0732         14.9106        -4.40270
           23177         56.3617         61.5224         13.9113        -4.24126
           23178         56.1435         61.3617         14.2399        -4.39121
           23179         56.8393         61.8087         13.2448        -4.22714
           23180         56.6176         61.6485         13.5710        -4.37734
           23181         57.3215         62.0927         12.5818        -4.21042
           23182         57.0968         61.9331         12.9049        -4.36077
           23183         57.8072         62.3740         11.9231        -4.19099
           23184         57.5799         62.2150         12.2427        -4.34131
           23185         58.2953         62.6520         11.2698        -4.16884
           23186         58.0657         62.4937         11.5854        -4.31890
           23187         58.7846         62.9263         10.6228        -4.14406
           23188         58.5530         62.7687         10.9339        -4.29361
           23189         59.2741         63.1966         9.98311        -4.11687
           23190         59.0408         63.0396         10.2894        -4.26560
           23191         59.7627         63.4625         9.35162        -4.08755
           23192         59.5278         63.3060         9.65275        -4.23516
           23193         60.2497         63.7237         8.72915        -4.05648
           23194         60.0133         63.5677         9.02489        -4.20265
           23195         60.7340         63.9801         8.11650        -4.02410
           23196         60.4962         63.8243         8.40668        -4.16850
           23197         61.2150         64.2315         7.51436        -3.99088
           23198         60.9757         64.0756         7.79887        -4.13320
           23199         61.6919         64.4778         6.92337        -3.95736
           23200         61.4511         64.3215         7.20215        -4.09729
           23201         62.1643         64.7190         6.34405        -3.92407
           23202         61.9219         64.5621         6.61711        -4.06133
           23203         62.6317         64.9551         5.77688        -3.89157
           23204         62.3875         64.7973         6.04427        -4.02593
           23205         63.0938         65.1863         5.22224        -3.86044
           23206         62.8475         65.0273         5.48404        -3.99166
           23207         63.5502         65.4128         4.68041        -3.83121
           23208         63.3017         65.2521         4.93675        -3.95911
           23209         64.0007         65.6348         4.15164        -3.80443
           23210         63.7497         65.4721         4.40268        -3.92886
           23211         64.4455         65.8526         3.63607        -3.78061
           23212         64.1917         65.6874         3.88199        -3.90146
           23213         64.8844         66.0665         3.13382        -3.76024
           23214         64.6274         65.8984         3.37480        -3.87743
           23215         65.3175         66.2769         2.64492        -3.74378
           23216         65.0571         66.1056         2.88117        -3.85726
           23217         65.7450         66.4842         2.16937        -3.73164
           23218         65.4807         66.3092         2.40110        -3.84140
           23219         66.1670         66.6888         1.70712        -3.72420
           23220         65.8986         66.5097         1.93455        -3.83027
           23221         66.5839         66.8912         1.25810        -3.72179
           23222         66.3110         66.7076         1.48143        -3.82424
           23223         66.9958         67.0918     822.197E-03        -3.72471
           23224         66.7181         66.9033         1.04163        -3.82362
           23225         67.4033         67.2912     399.294E-03        -3.73323
           23226         67.1204         67.0974     615.023E-03        -3.82870
           23227         67.8065         67.4897    -10.7436E-03        -3.74755
           23228         67.5181         67.2902     201.453E-03        -3.83973
           23229         68.2059         67.6880    -408.061E-03        -3.76784
           23230         67.9117         67.4825    -199.238E-03        -3.85690
           23231         68.6019         67.8866    -792.802E-03        -3.79425
           23232         68.3015         67.6745    -587.212E-03        -3.88036
           23233         68.9949         68.0858        -1.16510        -3.82687
           23234         68.6880         67.8669    -962.629E-03        -3.91024
           23235         69.3853         68.2863        -1.52509        -3.86577
           23236         69.0717         68.0602        -1.32564        -3.94661
           23237         69.7734         68.4884        -1.87289        -3.91098
           23238         69.4529         68.2548        -1.67638        -3.98951
           23239         70.1597         68.6928        -2.20858        -3.96249
           23240         69.8320         68.4513        -2.01497        -4.03896
           23241         70.5446         68.8998        -2.53223        -4.02026
           23242         70.2094         68.6500        -2.34151        -4.09493
           23243         70.9285         69.1099        -2.84391        -4.08425
           23244         70.5856         68.8516        -2.65607        -4.15736
           23245         71.3115         69.3235        -3.14361        -4.15435
           23246         70.9608         69.0564        -2.95870        -4.22618
           23247         71.6942         69.5412        -3.43131        -4.23045
           23248         71.3355         69.2648        -3.24941        -4.30128
           23249         72.0767         69.7632        -3.70697        -4.31241
           23250         71.7099         69.4774        -3.52816        -4.38251
           23251         72.4593         69.9901        -3.97048        -4.40007
           23252         72.0843         69.6945        -3.79489        -4.46972
           23253         72.8423         70.2222        -4.22171        -4.49325
           23254         72.4589         69.9164        -4.04950        -4.56274
           23255         73.2257         70.4598        -4.46046        -4.59173
           23256         72.8340         70.1437        -4.29184        -4.66134
           23257         73.6098         70.7033        -4.68652        -4.69529
           23258         73.2096         70.3765        -4.52171        -4.76531
           23259         73.9946         70.9530        -4.89958        -4.80369
           23260         73.5860         70.6153        -4.73885        -4.87441
           23261         74.3801         71.2093        -5.09933        -4.91666
           23262         73.9631         70.8604        -4.94298        -4.98836
           23263         74.7664         71.4724        -5.28538        -5.03391
           23264         74.3411         71.1121        -5.13373        -5.10688
           23265         75.1533         71.7426        -5.45726        -5.15515
           23266         74.7197         71.3706        -5.31070        -5.22967
           23267         75.5407         72.0201        -5.61448        -5.28005
           23268         75.0990         71.6362        -5.47342        -5.35640
           23269         75.9285         72.3051        -5.75647        -5.40827
           23270         75.4789         71.9091        -5.62137        -5.48674
           23271         76.3164         72.5980        -5.88260        -5.53945
           23272         75.8589         72.1895        -5.75395        -5.62032
           23273         76.7040         72.8987        -5.99217        -5.67322
           23274         76.2390         72.4777        -5.87050        -5.75676
           23275         77.0910         73.2075        -6.08440        -5.80918
           23276         76.6187         72.7737        -5.97031        -5.89566
           23277         77.4770         73.5246        -6.15847        -5.94691
           23278         76.9976         73.0778        -6.05258        -6.03661
           23279         77.8614         73.8499        -6.21346        -6.08598
           23280         77.3752         73.3899        -6.11644        -6.17915
           23281         78.2436         74.1836        -6.24839        -6.22592
           23282         77.7510         73.7103        -6.16096        -6.32284
           23283         78.6229         74.5256        -6.26218        -6.36626
           23284         78.1244         74.0389        -6.18512        -6.46718
           23285         78.9987         74.8761        -6.25370        -6.50649
           23286         78.4946         74.3757        -6.18784        -6.61166
           23287         79.3701         75.2350        -6.22171        -6.64608
           23288         78.8609         74.7209        -6.16792        -6.75576
           23289         79.7362         75.6022        -6.16491        -6.78446
           23290         79.2224         75.0742        -6.12413        -6.89891
           23291         80.0961         75.9776        -6.08189        -6.92107
           23292         79.5782         75.4357        -6.05511        -7.04053
           23293         80.4486         76.3611        -5.97115        -7.05528
           23294         79.9273         75.8053        -5.95942        -7.17999
           23295         80.7927         76.7526        -5.83111        -7.18646
           23296         80.2685         76.1827        -5.83556        -7.31666
           23297         81.1271         77.1518        -5.66008        -7.31391
           23298         80.6007         76.5679        -5.68189        -7.44984
           23299         81.4507         77.5586        -5.45629        -7.43694
           23300         80.9227         76.9605        -5.49670        -7.57883
           23301         81.7619         77.9725        -5.21785        -7.55477
           23302         81.2331         77.3604        -5.27817        -7.70286
           23303         82.0595         78.3933        -4.94276        -7.66663
           23304         81.5306         77.7673        -5.02440        -7.82115
           23305         82.3418         78.8206        -4.62893        -7.77166
           23306         81.8136         78.1807        -4.73336        -7.93284
           23307         82.6074         79.2541        -4.27414        -7.86898
           23308         82.0807         78.6003        -4.40290        -8.03706
           23309         82.8546         79.6931        -3.87605        -7.95764
           23310         82.3302         79.0257        -4.03079        -8.13285
           23311         83.0816         80.1372        -3.43222        -8.03665
           23312         82.5605         79.4563        -3.61467        -8.21922
           23313         83.2869         80.5858        -2.94007        -8.10494
           23314         82.7699         79.8916        -3.15204        -8.29512
           23315         83.4685         81.0382        -2.39688        -8.16137
           23316         82.9565         80.3311        -2.64030        -8.35940
           23317         83.6248         81.4938        -1.79981        -8.20474
           23318         83.1187         80.7740        -2.07671        -8.41087
           23319         83.7538         81.9517        -1.14587        -8.23377
           23320         83.2545         81.2196        -1.45838        -8.44825
           23321         83.8536         82.4112    -431.922E-03        -8.24706
           23322         83.3622         81.6672    -782.307E-03        -8.47018
           23323         83.9226         82.8713     345.340E-03        -8.24315
           23324         83.4399         82.1158    -45.3105E-03        -8.47517
           23325         83.9589         83.3310         1.18937        -8.22046
           23326         83.4857         82.5646     755.938E-03        -8.46168
           23327         83.9607         83.7893         2.10381        -8.17729
           23328         83.4980         83.0125         1.62492        -8.42801
           23329         83.9264         84.2449         3.09249        -8.11181
           23330         83.4750         83.4584         2.56532        -8.37235
           23331         83.8545         84.6965         4.15943        -8.02208
           23332         83.4152         83.9012         3.58099        -8.29278
           23333         83.7436         85.1429         5.30887        -7.90598
           23334         83.3170         84.3395         4.67600        -8.18720
           23335         83.5927         85.5824         6.54529        -7.76125
           23336         83.1794         84.7719         5.85461        -8.05337
           23337         83.4009         86.0135         7.87339        -7.58547
           23338         83.0013         85.1969         7.12132        -7.88888
           23339         83.1678         86.4343         9.29814        -7.37602
           23340         82.7820         85.6128         8.48090        -7.69113
           23341         82.8935         86.8430         10.8248        -7.13010
           23342         82.5215         86.0178         9.93837        -7.45735
           23343         82.5787         87.2374         12.4590        -6.84469
           23344         82.2200         86.4100         11.4990        -7.18453
           23345         82.2248         87.6151         14.2066        -6.51657
           23346         81.8787         86.7871         13.1685        -6.86946
           23347         81.8344         87.9738         16.0738        -6.14230
           23348         81.4995         87.1469         14.9528        -6.50871
           23349         81.4110         88.3107         18.0673        -5.71819
           23350         81.0854         87.4868         16.8583        -6.09859
           23351         80.9599         88.6227         20.1943        -5.24032
           23352         80.6408         87.8040         18.8916        -5.63519
           23353         80.4880         88.9067         22.4621        -4.70452
           23354         80.1717         88.0954         21.0600        -5.11432
           23355         80.0045         89.1591         24.8789        -4.10637
           23356         79.6862         88.3578         23.3711        -4.53153
           23357         79.5213         89.3761         27.4531        -3.44118
           23358         79.1948         88.5875         25.8331        -3.88212
           23359         79.0536         89.5535         30.1938        -2.70403
           23360         78.7109         88.7805         28.4546        -3.16112
           23361         78.6203         89.6867         33.1108        -1.88975
           23362         78.2516         88.9326         31.2449        -2.36330
           23363         78.2448         89.7708         36.2142    -992.907E-03
           23364         77.8381         89.0390         34.2138        -1.48315
           23365         77.9554         89.8002         39.5156    -7.56222E-03
           23366         77.4964         89.0948         37.3718    -514.970E-03
           23367         54.1252         60.0418         17.2568        -4.57720
           23368         53.9352         59.8819         17.5871        -4.72645
           23369         53.6987         59.7513         17.9256        -4.58527
           23370         54.5626         60.3325         16.5861        -4.56971
           23371         54.3666         60.1722         16.9177        -4.71878
           23372         55.0099         60.6231         15.9140        -4.56180
           23373         54.8084         60.4626         16.2461        -4.71101
           23374         55.4660         60.9130         15.2413        -4.55268
           23375         55.2597         60.7527         15.5731        -4.70222
           23376         55.9301         61.2020         14.5688        -4.54165
           23377         55.7194         61.0419         14.8995        -4.69163
           23378         56.4009         61.4895         13.8974        -4.52816
           23379         56.1863         61.3298         14.2264        -4.67861
           23380         56.8772         61.7748         13.2282        -4.51183
           23381         56.6593         61.6158         13.5547        -4.66266
           23382         57.3578         62.0576         12.5622        -4.49240
           23383         57.1371         61.8994         12.8855        -4.64347
           23384         57.8415         62.3372         11.9006        -4.46975
           23385         57.6183         62.1798         12.2201        -4.62085
           23386         58.3269         62.6131         11.2444        -4.44390
           23387         58.1017         62.4566         11.5596        -4.59476
           23388         58.8131         62.8848         10.5947        -4.41500
           23389         58.5860         62.7291         10.9051        -4.56531
           23390         59.2987         63.1519         9.95252        -4.38331
           23391         59.0701         62.9971         10.2578        -4.53272
           23392         59.7828         63.4140         9.31893        -4.34917
           23393         59.5528         63.2599         9.61870        -4.49732
           23394         60.2643         63.6709         8.69481        -4.31302
           23395         60.0330         63.5173         8.98884        -4.45954
           23396         60.7424         63.9223         8.08100        -4.27537
           23397         60.5098         63.7690         8.36913        -4.41990
           23398         61.2164         64.1680         7.47825        -4.23678
           23399         60.9825         64.0148         7.76038        -4.37896
           23400         61.6855         64.4080         6.88721        -4.19783
           23401         61.4501         64.2545         7.16331        -4.33733
           23402         62.1492         64.6423         6.30844        -4.15916
           23403         61.9122         64.4882         6.57854        -4.29566
           23404         62.6071         64.8709         5.74242        -4.12138
           23405         62.3683         64.7159         6.00659        -4.25461
           23406         63.0589         65.0940         5.18950        -4.08511
           23407         62.8180         64.9376         5.44788        -4.21484
           23408         63.5042         65.3118         4.64998        -4.05099
           23409         63.2610         65.1537         4.90272        -4.17699
           23410         63.9431         65.5246         4.12406        -4.01958
           23411         63.6972         65.3643         4.37136        -4.14171
           23412         64.3755         65.7326         3.61188        -3.99147
           23413         64.1266         65.5698         3.85396        -4.10960
           23414         64.8013         65.9363         3.11350        -3.96717
           23415         64.5491         65.7705         3.35058        -4.08121
           23416         65.2208         66.1360         2.62893        -3.94718
           23417         64.9648         65.9668         2.86125        -4.05709
           23418         65.6342         66.3322         2.15811        -3.93194
           23419         65.3741         66.1591         2.38593        -4.03771
           23420         66.0417         66.5254         1.70097        -3.92186
           23421         65.7771         66.3479         1.92453        -4.02352
           23422         66.4435         66.7159         1.25738        -3.91729
           23423         66.1741         66.5337         1.47691        -4.01491
           23424         66.8401         66.9044     827.191E-03        -3.91854
           23425         66.5655         66.7170         1.04294        -4.01221
           23426         67.2319         67.0913     410.242E-03        -3.92588
           23427         66.9516         66.8984     622.409E-03        -4.01572
           23428         67.6191         67.2772     6.35385E-03        -3.93954
           23429         67.3329         67.0782     215.143E-03        -4.02569
           23430         68.0023         67.4625    -384.658E-03        -3.95968
           23431         67.7098         67.2572    -179.066E-03        -4.04231
           23432         68.3819         67.6477    -762.978E-03        -3.98644
           23433         68.0828         67.4357    -560.423E-03        -4.06575
           23434         68.7583         67.8335        -1.12878        -4.01992
           23435         68.4523         67.6143    -929.127E-03        -4.09611
           23436         69.1319         68.0202        -1.48223        -4.06017
           23437         68.8187         67.7935        -1.28537        -4.13347
           23438         69.5033         68.2085        -1.82347        -4.10721
           23439         69.1825         67.9739        -1.62932        -4.17787
           23440         69.8727         68.3987        -2.15263        -4.16104
           23441         69.5442         68.1559        -1.96113        -4.22929
           23442         70.2407         68.5914        -2.46982        -4.22160
           23443         69.9042         68.3400        -2.28094        -4.28771
           23444         70.6075         68.7869        -2.77510        -4.28882
           23445         70.2628         68.5267        -2.58885        -4.35305
           23446         70.9736         68.9859        -3.06852        -4.36259
           23447         70.6206         68.7165        -2.88492        -4.42523
           23448         71.3393         69.1886        -3.35009        -4.44280
           23449         70.9777         68.9097        -3.16920        -4.50411
           23450         71.7048         69.3956        -3.61976        -4.52927
           23451         71.3346         69.1068        -3.44168        -4.58955
           23452         72.0706         69.6071        -3.87747        -4.62183
           23453         71.6915         69.3082        -3.70233        -4.68136
           23454         72.4367         69.8236        -4.12310        -4.72027
           23455         72.0488         69.5143        -3.95106        -4.77936
           23456         72.8033         70.0455        -4.35648        -4.82438
           23457         72.4065         69.7254        -4.18774        -4.88330
           23458         73.1707         70.2730        -4.57741        -4.93390
           23459         72.7649         69.9419        -4.41219        -4.99296
           23460         73.5388         70.5065        -4.78562        -5.04857
           23461         73.1241         70.1642        -4.62418        -5.10806
           23462         73.9078         70.7464        -4.98080        -5.16811
           23463         73.4841         70.3925        -4.82345        -5.22831
           23464         74.2776         70.9928        -5.16257        -5.29220
           23465         73.8450         70.6272        -5.00964        -5.35343
           23466         74.6482         71.2461        -5.33051        -5.42053
           23467         74.2068         70.8684        -5.18238        -5.48306
           23468         75.0194         71.5065        -5.48413        -5.55276
           23469         74.5693         71.1165        -5.34121        -5.61688
           23470         75.3910         71.7742        -5.62287        -5.68851
           23471         74.9324         71.3716        -5.48563        -5.75452
           23472         75.7629         72.0494        -5.74614        -5.82741
           23473         75.2959         71.6340        -5.61506        -5.89560
           23474         76.1346         72.3322        -5.85324        -5.96906
           23475         75.6594         71.9039        -5.72887        -6.03970
           23476         76.5058         72.6229        -5.94343        -6.11302
           23477         76.0228         72.1814        -5.82635        -6.18642
           23478         76.8761         72.9214        -6.01589        -6.25887
           23479         76.3855         72.4666        -5.90674        -6.33529
           23480         77.2449         73.2281        -6.06974        -6.40614
           23481         76.7470         72.7596        -5.96919        -6.48586
           23482         77.6117         73.5427        -6.10401        -6.55433
           23483         77.1068         73.0605        -6.01279        -6.63763
           23484         77.9758         73.8656        -6.11765        -6.70294
           23485         77.4644         73.3694        -6.03654        -6.79009
           23486         78.3363         74.1965        -6.10956        -6.85143
           23487         77.8188         73.6863        -6.03937        -6.94271
           23488         78.6926         74.5356        -6.07851        -6.99924
           23489         78.1695         74.0112        -6.02014        -7.09491
           23490         79.0438         74.8827        -6.02324        -7.14578
           23491         78.5155         74.3440        -5.97762        -7.24611
           23492         79.3887         75.2377        -5.94236        -7.29043
           23493         78.8559         74.6847        -5.91048        -7.39569
           23494         79.7265         75.6006        -5.83441        -7.43255
           23495         79.1896         75.0331        -5.81734        -7.54299
           23496         80.0559         75.9712        -5.69785        -7.57144
           23497         79.5156         75.3892        -5.69670        -7.68734
           23498         80.3758         76.3493        -5.53101        -7.70640
           23499         79.8327         75.7527        -5.54697        -7.82800
           23500         80.6848         76.7346        -5.33217        -7.83667
           23501         80.1397         76.1234        -5.36648        -7.96424
           23502         80.9816         77.1269        -5.09946        -7.96144
           23503         80.4352         76.5011        -5.15345        -8.09524
           23504         81.2649         77.5259        -4.83096        -8.07989
           23505         80.7178         76.8855        -4.90601        -8.22018
           23506         81.5329         77.9311        -4.52459        -8.19112
           23507         80.9861         77.2763        -4.62219        -8.33816
           23508         81.7843         78.3422        -4.17821        -8.29420
           23509         81.2385         77.6730        -4.29989        -8.44825
           23510         82.0173         78.7588        -3.78953        -8.38812
           23511         81.4734         78.0753        -3.93694        -8.54947
           23512         82.2303         79.1802        -3.35616        -8.47185
           23513         81.6891         78.4827        -3.53102        -8.64075
           23514         82.4216         79.6060        -2.87560        -8.54426
           23515         81.8840         78.8946        -3.07972        -8.72099
           23516         82.5893         80.0356        -2.34521        -8.60415
           23517         82.0562         79.3105        -2.58050        -8.78901
           23518         82.7316         80.4682        -1.76221        -8.65026
           23519         82.2039         79.7298        -2.03070        -8.84353
           23520         82.8467         80.9031        -1.12371        -8.68123
           23521         82.3254         80.1517        -1.42753        -8.88323
           23522         82.9328         81.3395    -426.659E-03        -8.69562
           23523         82.4188         80.5755    -768.052E-03        -8.90666
           23524         82.9880         81.7766     332.137E-03        -8.69186
           23525         82.4823         81.0003    -49.2060E-03        -8.91230
           23526         83.0106         82.2134         1.15602        -8.66831
           23527         82.5140         81.4254     732.228E-03        -8.89849
           23528         82.9988         82.6488         2.04851        -8.62318
           23529         82.5122         81.8497         1.57962        -8.86348
           23530         82.9509         83.0818         3.01330        -8.55454
           23531         82.4752         82.2722         2.49650        -8.80536
           23532         82.8656         83.5111         4.05428        -8.46036
           23533         82.4014         82.6918         3.48660        -8.72212
           23534         82.7413         83.9355         5.17551        -8.33840
           23535         82.2895         83.1071         4.55380        -8.61155
           23536         82.5771         84.3534         6.38132        -8.18628
           23537         82.1381         83.5170         5.70224        -8.47130
           23538         82.3721         84.7634         7.67621        -8.00145
           23539         81.9463         83.9200         6.93621        -8.29885
           23540         82.1259         85.1638         9.06497        -7.78114
           23541         81.7135         84.3144         8.26029        -8.09145
           23542         81.8386         85.5526         10.5527        -7.52239
           23543         81.4396         84.6986         9.67929        -7.84617
           23544         81.5109         85.9281         12.1447        -7.22201
           23545         81.1248         85.0707         11.1983        -7.55987
           23546         81.1442         86.2878         13.8466        -6.87659
           23547         80.7703         85.4288         12.8227        -7.22913
           23548         80.7410         86.6296         15.6645        -6.48246
           23549         80.3780         85.7705         14.5583        -6.85033
           23550         80.3049         86.9507         17.6048        -6.03571
           23551         79.9509         86.0934         16.4111        -6.41956
           23552         79.8411         87.2483         19.6744        -5.53215
           23553         79.4933         86.3950         18.3876        -5.93266
           23554         79.3565         87.5194         21.8804        -4.96735
           23555         79.0113         86.6722         20.4947        -5.38518
           23556         78.8603         87.7605         24.2306        -4.33657
           23557         78.5129         86.9220         22.7398        -4.77239
           23558         78.3644         87.9679         26.7333        -3.63482
           23559         78.0086         87.1409         25.1307        -4.08926
           23560         77.8840         88.1376         29.3973        -2.85680
           23561         77.5118         87.3249         27.6759        -3.33049
           23562         77.4379         88.2651         32.2319        -1.99698
           23563         77.0397         87.4701         30.3844        -2.49048
           23564         77.0499         88.3457         35.2474        -1.04954
           23565         76.6134         87.5718         33.2656        -1.56334
           23566         76.7484         88.3739         38.4548    -8.03755E-03
           23567         76.2594         87.6251         36.3299    -542.953E-03
           23568         54.1756         60.0130         17.2493        -4.86760
           23569         53.9894         59.8542         17.5794        -5.01636
           23570         53.7504         59.7231         17.9172        -4.87526
           23571         54.6119         60.3033         16.5785        -4.86020
           23572         54.4196         60.1441         16.9102        -5.00902
           23573         55.0583         60.5935         15.9054        -4.85198
           23574         54.8606         60.4342         16.2378        -5.00118
           23575         55.5137         60.8832         15.2308        -4.84205
           23576         55.3111         60.7241         15.5631        -4.99182
           23577         55.9770         61.1717         14.5558        -4.82968
           23578         55.7701         61.0130         14.8871        -4.98011
           23579         56.4468         61.4585         13.8815        -4.81428
           23580         56.2363         61.3004         14.2110        -4.96536
           23581         56.9219         61.7430         13.2090        -4.79544
           23582         56.7082         61.5857         13.5358        -4.94707
           23583         57.4008         62.0245         12.5396        -4.77291
           23584         57.1845         61.8681         12.8630        -4.92489
           23585         57.8824         62.3023         11.8744        -4.74660
           23586         57.6639         62.1470         12.1938        -4.89867
           23587         58.3651         62.5760         11.2148        -4.71655
           23588         58.1448         62.4218         11.5296        -4.86839
           23589         58.8478         62.8449         10.5619        -4.68296
           23590         58.6259         62.6918         10.8716        -4.83421
           23591         59.3292         63.1086         9.91694        -4.64616
           23592         59.1060         62.9565         10.2211        -4.79641
           23593         59.8083         63.3667         9.28096        -4.60655
           23594         59.5839         63.2154         9.57920        -4.75540
           23595         60.2839         63.6188         8.65495        -4.56467
           23596         60.0584         63.4682         8.94707        -4.71168
           23597         60.7553         63.8647         8.03984        -4.52108
           23598         60.5286         63.7146         8.32566        -4.66585
           23599         61.2215         64.1043         7.43640        -4.47644
           23600         60.9936         63.9543         7.71586        -4.61857
           23601         61.6820         64.3375         6.84532        -4.43141
           23602         61.4527         64.1873         7.11840        -4.57053
           23603         62.1362         64.5642         6.26717        -4.38670
           23604         61.9053         64.4135         6.53395        -4.52246
           23605         62.5837         64.7846         5.70243        -4.34301
           23606         62.3510         64.6329         5.96301        -4.47510
           23607         63.0242         64.9989         5.15145        -4.30102
           23608         62.7894         64.8459         5.40600        -4.42919
           23609         63.4576         65.2073         4.61450        -4.26142
           23610         63.2203         65.0524         4.86323        -4.38545
           23611         63.8836         65.4100         4.09176        -4.22486
           23612         63.6435         65.2530         4.33490        -4.34457
           23613         64.3025         65.6075         3.58333        -4.19194
           23614         64.0592         65.4478         3.82113        -4.30720
           23615         64.7142         65.8002         3.08922        -4.16324
           23616         64.4673         65.6372         3.32197        -4.27397
           23617         65.1190         65.9884         2.60941        -4.13929
           23618         64.8681         65.8219         2.83737        -4.24543
           23619         65.5172         66.1727         2.14379        -4.12055
           23620         65.2618         66.0020         2.36726        -4.22211
           23621         65.9089         66.3535         1.69224        -4.10745
           23622         65.6488         66.1783         1.91150        -4.20447
           23623         66.2946         66.5314         1.25457        -4.10038
           23624         66.0292         66.3512         1.46989        -4.19292
           23625         66.6747         66.7069     830.611E-03        -4.09964
           23626         66.4037         66.5213         1.04225        -4.18781
           23627         67.0496         66.8805     420.130E-03        -4.10552
           23628         66.7726         66.6891     628.331E-03        -4.18944
           23629         67.4197         67.0528     22.9088E-03        -4.11823
           23630         67.1363         66.8550     227.895E-03        -4.19806
           23631         67.7856         67.2242    -361.281E-03        -4.13796
           23632         67.4954         67.0198    -159.306E-03        -4.21388
           23633         68.1476         67.3954    -732.667E-03        -4.16483
           23634         67.8503         67.1839    -533.524E-03        -4.23704
           23635         68.5063         67.5668        -1.09146        -4.19894
           23636         68.2016         67.3479    -895.000E-03        -4.26766
           23637         68.8621         67.7390        -1.43787        -4.24032
           23638         68.5497         67.5123        -1.24396        -4.30579
           23639         69.2155         67.9125        -1.77208        -4.28900
           23640         68.8951         67.6776        -1.58063        -4.35145
           23641         69.5669         68.0878        -2.09424        -4.34494
           23642         69.2383         67.8443        -1.90518        -4.40464
           23643         69.9168         68.2653        -2.40449        -4.40808
           23644         69.5797         68.0130        -2.21779        -4.46531
           23645         70.2656         68.4455        -2.70294        -4.47834
           23646         69.9198         68.1840        -2.51858        -4.53336
           23647         70.6137         68.6288        -2.98965        -4.55559
           23648         70.2589         68.3578        -2.80766        -4.60869
           23649         70.9613         68.8158        -3.26465        -4.63969
           23650         70.5975         68.5349        -3.08510        -4.69116
           23651         71.3089         69.0067        -3.52795        -4.73046
           23652         70.9359         68.7157        -3.35091        -4.78059
           23653         71.6566         69.2020        -3.77948        -4.82771
           23654         71.2743         68.9006        -3.60509        -4.87680
           23655         72.0048         69.4021        -4.01915        -4.93120
           23656         71.6131         69.0899        -3.84756        -4.97955
           23657         72.3537         69.6073        -4.24682        -5.04071
           23658         71.9524         69.2841        -4.07823        -5.08861
           23659         72.7033         69.8180        -4.46231        -5.15597
           23660         72.2925         69.4834        -4.29694        -5.20372
           23661         73.0538         70.0344        -4.66536        -5.27668
           23662         72.6335         69.6883        -4.50348        -5.32459
           23663         73.4052         70.2569        -4.85568        -5.40255
           23664         72.9754         69.8989        -4.69759        -5.45091
           23665         73.7576         70.4858        -5.03292        -5.53324
           23666         73.3183         70.1156        -4.87895        -5.58236
           23667         74.1108         70.7212        -5.19667        -5.66842
           23668         73.6622         70.3386        -5.04721        -5.71859
           23669         74.4647         70.9635        -5.34647        -5.80771
           23670         74.0069         70.5682        -5.20193        -5.85924
           23671         74.8192         71.2128        -5.48178        -5.95073
           23672         74.3523         70.8046        -5.34262        -6.00391
           23673         75.1740         71.4693        -5.60201        -6.09708
           23674         74.6982         71.0480        -5.46872        -6.15221
           23675         75.5289         71.7332        -5.70650        -6.24633
           23676         75.0443         71.2986        -5.57963        -6.30370
           23677         75.8833         72.0046        -5.79453        -6.39803
           23678         75.3903         71.5564        -5.67467        -6.45794
           23679         76.2370         72.2837        -5.86529        -6.55171
           23680         75.7358         71.8218        -5.75307        -6.61445
           23681         76.5892         72.5705        -5.91793        -6.70689
           23682         76.0802         72.0946        -5.81403        -6.77275
           23683         76.9396         72.8651        -5.95151        -6.86305
           23684         76.4231         72.3750        -5.85665        -6.93231
           23685         77.2873         73.1675        -5.96499        -7.01964
           23686         76.7638         72.6631        -5.87996        -7.09260
           23687         77.6317         73.4778        -5.95730        -7.17612
           23688         77.1015         72.9589        -5.88292        -7.25305
           23689         77.9720         73.7958        -5.92726        -7.33186
           23690         77.4356         73.2624        -5.86442        -7.41306
           23691         78.3071         74.1216        -5.87360        -7.48627
           23692         77.7651         73.5734        -5.82324        -7.57202
           23693         78.6363         74.4551        -5.79499        -7.63869
           23694         78.0890         73.8921        -5.75810        -7.72927
           23695         78.9583         74.7962        -5.68999        -7.78843
           23696         78.4065         74.2182        -5.66764        -7.88412
           23697         79.2721         75.1446        -5.55710        -7.93477
           23698         78.7164         74.5516        -5.55039        -8.03586
           23699         79.5764         75.5003        -5.39469        -8.07697
           23700         79.0174         74.8922        -5.40482        -8.18374
           23701         79.8700         75.8629        -5.20106        -8.21422
           23702         79.3084         75.2397        -5.22927        -8.32695
           23703         80.1515         76.2322        -4.97442        -8.34569
           23704         79.5881         75.5940        -5.02203        -8.46466
           23705         80.4194         76.6080        -4.71286        -8.47050
           23706         79.8549         75.9547        -4.78126        -8.59600
           23707         80.6723         76.9898        -4.41437        -8.58771
           23708         80.1075         76.3215        -4.50504        -8.72004
           23709         80.9086         77.3772        -4.07685        -8.69634
           23710         80.3443         76.6940        -4.19133        -8.83579
           23711         81.1265         77.7699        -3.69809        -8.79535
           23712         80.5636         77.0719        -3.83800        -8.94223
           23713         81.3245         78.1674        -3.27575        -8.88364
           23714         80.7639         77.4546        -3.44281        -9.03824
           23715         81.5008         78.5690        -2.80740        -8.96003
           23716         80.9433         77.8417        -3.00342        -9.12268
           23717         81.6537         78.9742        -2.29047        -9.02328
           23718         81.1002         78.2327        -2.51736        -9.19430
           23719         81.7812         79.3824        -1.72228        -9.07205
           23720         81.2326         78.6269        -1.98204        -9.25178
           23721         81.8815         79.7929        -1.10002        -9.10493
           23722         81.3389         79.0236        -1.39477        -9.29374
           23723         81.9529         80.2048    -420.747E-03        -9.12041
           23724         81.4171         79.4222    -752.709E-03        -9.31866
           23725         81.9935         80.6174     318.634E-03        -9.11686
           23726         81.4655         79.8219    -52.9011E-03        -9.32496
           23727         82.0015         81.0298         1.12134        -9.09255
           23728         81.4822         80.2218     707.757E-03        -9.31091
           23729         81.9752         81.4410         1.99077        -9.04562
           23730         81.4654         80.6211         1.53250        -9.27469
           23731         81.9130         81.8499         2.93047        -8.97406
           23732         81.4136         81.0187         2.42474        -9.21431
           23733         81.8133         82.2554         3.94416        -8.87572
           23734         81.3250         81.4136         3.38804        -9.12766
           23735         81.6749         82.6563         5.03576        -8.74828
           23736         81.1984         81.8046         4.42612        -9.01245
           23737         81.4966         83.0513         6.20940        -8.58925
           23738         81.0325         82.1905         5.54294        -8.86622
           23739         81.2776         83.4387         7.46940        -8.39593
           23740         80.8263         82.5700         6.74260        -8.68632
           23741         81.0176         83.8172         8.82035        -8.16543
           23742         80.5792         82.9415         8.02947        -8.46990
           23743         80.7166         84.1850         10.2671        -7.89463
           23744         80.2912         83.3036         9.40814        -8.21388
           23745         80.3752         84.5401         11.8147        -7.58019
           23746         79.9624         83.6543         10.8835        -7.91495
           23747         79.9951         84.8806         13.4686        -7.21849
           23748         79.5941         83.9919         12.4606        -7.56953
           23749         79.5785         85.2042         15.2347        -6.80566
           23750         79.1880         84.3143         14.1450        -7.17381
           23751         79.1292         85.5084         17.1189        -6.33757
           23752         78.7473         84.6191         15.9425        -6.72365
           23753         78.6522         85.7906         19.1279        -5.80978
           23754         78.2763         84.9040         17.8593        -6.21467
           23755         78.1544         86.0477         21.2687        -5.21757
           23756         77.7809         85.1660         19.9019        -5.64215
           23757         77.6451         86.2766         23.5486        -4.55591
           23758         77.2692         85.4023         22.0775        -5.00108
           23759         77.1362         86.4738         25.9758        -3.81948
           23760         76.7517         85.6095         24.3937        -4.28611
           23761         76.6428         86.6352         28.5586        -3.00263
           23762         76.2418         85.7840         26.8584        -3.49160
           23763         76.1839         86.7566         31.3062        -2.09945
           23764         75.7568         85.9217         29.4805        -2.61159
           23765         75.7834         86.8335         34.2284        -1.10370
           23766         75.3178         86.0183         32.2691        -1.63977
           23767         75.4697         86.8603         37.3361    -8.50418E-03
           23768         74.9514         86.0690         35.2342    -569.610E-03
           23769         54.2326         59.9865         17.2422        -5.15761
           23770         54.0503         59.8292         17.5723        -5.30586
           23771         53.8085         59.6970         17.9095        -5.16466
           23772         54.6681         60.2765         16.5708        -5.15041
           23773         54.4797         60.1189         16.9029        -5.29900
           23774         55.1139         60.5666         15.8961        -5.14190
           23775         54.9201         60.4088         16.2292        -5.29115
           23776         55.5687         60.8560         15.2192        -5.13111
           23777         55.3702         60.6985         15.5523        -5.28120
           23778         56.0313         61.1442         14.5411        -5.11724
           23779         55.8287         60.9872         14.8732        -5.26825
           23780         56.5003         61.4305         13.8632        -5.09967
           23781         56.2942         61.2743         14.1934        -5.25155
           23782         56.9743         61.7141         13.1868        -5.07798
           23783         56.7652         61.5589         13.5142        -5.23059
           23784         57.4516         61.9943         12.5132        -5.05193
           23785         57.2402         61.8402         12.8370        -5.20502
           23786         57.9309         62.2704         11.8440        -5.02144
           23787         57.7176         62.1176         12.1634        -5.17470
           23788         58.4108         62.5417         11.1804        -4.98661
           23789         58.1959         62.3903         11.4948        -5.13966
           23790         58.8898         62.8076         10.5239        -4.94771
           23791         58.6736         62.6575         10.8328        -5.10012
           23792         59.3666         63.0676         9.87572        -4.90512
           23793         59.1494         62.9188         10.1786        -5.05642
           23794         59.8402         63.3213         9.23701        -4.85934
           23795         59.6220         63.1735         9.53354        -5.00906
           23796         60.3094         63.5682         8.60889        -4.81099
           23797         60.0903         63.4213         8.89884        -4.95865
           23798         60.7732         63.8082         7.99231        -4.76073
           23799         60.5532         63.6619         8.27553        -4.90587
           23800         61.2310         64.0411         7.38811        -4.70931
           23801         61.0099         63.8950         7.66456        -4.85148
           23802         61.6820         64.2668         6.79700        -4.65749
           23803         61.4596         64.1206         7.06671        -4.79627
           23804         62.1258         64.4853         6.21957        -4.60604
           23805         61.9018         64.3387         6.48263        -4.74107
           23806         62.5620         64.6969         5.65629        -4.55576
           23807         62.3361         64.5492         5.91285        -4.68670
           23808         62.9902         64.9016         5.10749        -4.50742
           23809         62.7622         64.7526         5.35777        -4.63399
           23810         63.4104         65.0997         4.57341        -4.46174
           23811         63.1798         64.9488         4.81767        -4.58371
           23812         63.8226         65.2917         4.05420        -4.41945
           23813         63.5890         65.1384         4.29271        -4.53663
           23814         64.2269         65.4778         3.54992        -4.38121
           23815         63.9899         65.3218         3.78298        -4.49346
           23816         64.6233         65.6586         3.06052        -4.34762
           23817         64.3825         65.4992         3.28847        -4.45486
           23818         65.0123         65.8345         2.58594        -4.31926
           23819         64.7671         65.6713         2.80909        -4.42144
           23820         65.3939         66.0060         2.12602        -4.29661
           23821         65.1441         65.8385         2.34469        -4.39375
           23822         65.7688         66.1737         1.68056        -4.28013
           23823         65.5137         66.0014         1.89508        -4.37226
           23824         66.1372         66.3381         1.24936        -4.27020
           23825         65.8765         66.1605         1.46002        -4.35741
           23826         66.4995         66.4997     832.151E-03        -4.26716
           23827         66.2328         66.3165         1.03926        -4.34955
           23828         66.8564         66.6591     428.675E-03        -4.27128
           23829         66.5833         66.4698     632.495E-03        -4.34900
           23830         67.2083         66.8170     38.6587E-03        -4.28279
           23831         66.9283         66.6210     239.439E-03        -4.35600
           23832         67.5556         66.9737    -338.176E-03        -4.30185
           23833         67.2684         66.7709    -140.211E-03        -4.37076
           23834         67.8990         67.1300    -702.101E-03        -4.32860
           23835         67.6042         66.9197    -506.752E-03        -4.39340
           23836         68.2388         67.2862        -1.05337        -4.36310
           23837         67.9361         67.0683    -860.473E-03        -4.42404
           23838         68.5757         67.4431        -1.39224        -4.40541
           23839         68.2648         67.2170        -1.20164        -4.46272
           23840         68.9101         67.6010        -1.71891        -4.45550
           23841         68.5907         67.3664        -1.53052        -4.50945
           23842         69.2425         67.7604        -2.03359        -4.51335
           23843         68.9143         67.5170        -1.84732        -4.56420
           23844         69.5733         67.9219        -2.33645        -4.57887
           23845         69.2361         67.6694        -2.15226        -4.62691
           23846         69.9029         68.0859        -2.62761        -4.65196
           23847         69.5566         67.8238        -2.44548        -4.69747
           23848         70.2319         68.2529        -2.90719        -4.73249
           23849         69.8761         67.9810        -2.72714        -4.77575
           23850         70.5605         68.4232        -3.17522        -4.82027
           23851         70.1951         68.1412        -2.99731        -4.86159
           23852         70.8890         68.5973        -3.43174        -4.91513
           23853         70.5139         68.3048        -3.25605        -4.95481
           23854         71.2178         68.7756        -3.67672        -5.01685
           23855         70.8328         68.4724        -3.50337        -5.05518
           23856         71.5471         68.9584        -3.91008        -5.12518
           23857         71.1521         68.6441        -3.73923        -5.16247
           23858         71.8771         69.1461        -4.13171        -5.23986
           23859         71.4721         68.8205        -3.96355        -5.27642
           23860         72.2080         69.3391        -4.34143        -5.36061
           23861         71.7929         69.0018        -4.17619        -5.39674
           23862         72.5398         69.5375        -4.53902        -5.48712
           23863         72.1147         69.1883        -4.37697        -5.52313
           23864         72.8727         69.7417        -4.72421        -5.61906
           23865         72.4375         69.3804        -4.56565        -5.65526
           23866         73.2066         69.9521        -4.89667        -5.75609
           23867         72.7614         69.5782        -4.74193        -5.79278
           23868         73.5414         70.1687        -5.05601        -5.89784
           23869         73.0863         69.7822        -4.90547        -5.93533
           23870         73.8771         70.3919        -5.20177        -6.04392
           23871         73.4123         69.9924        -5.05585        -6.08252
           23872         74.2135         70.6219        -5.33346        -6.19394
           23873         73.7390         70.2091        -5.19261        -6.23394
           23874         74.5503         70.8587        -5.45049        -6.34745
           23875         74.0663         70.4325        -5.31522        -6.38917
           23876         74.8873         71.1027        -5.55223        -6.50400
           23877         74.3940         70.6628        -5.42309        -6.54775
           23878         75.2239         71.3538        -5.63798        -6.66314
           23879         74.7217         70.9001        -5.51554        -6.70921
           23880         75.5599         71.6124        -5.70696        -6.82436
           23881         75.0490         71.1444        -5.59187        -6.87305
           23882         75.8947         71.8783        -5.75833        -6.98715
           23883         75.3753         71.3960        -5.65126        -7.03876
           23884         76.2277         72.1517        -5.79117        -7.15097
           23885         75.7003         71.6549        -5.69285        -7.20580
           23886         76.5581         72.4326        -5.80450        -7.31524
           23887         76.0231         71.9211        -5.71571        -7.37360
           23888         76.8854         72.7210        -5.79724        -7.47938
           23889         76.3431         72.1947        -5.71881        -7.54157
           23890         77.2086         73.0170        -5.76824        -7.64276
           23891         76.6596         72.4756        -5.70106        -7.70908
           23892         77.5268         73.3203        -5.71629        -7.80474
           23893         76.9716         72.7638        -5.66129        -7.87547
           23894         77.8391         73.6310        -5.64007        -7.96462
           23895         77.2783         73.0593        -5.59825        -8.04008
           23896         78.1444         73.9490        -5.53818        -8.12169
           23897         77.5785         73.3618        -5.51060        -8.20218
           23898         78.4416         74.2741        -5.40914        -8.27519
           23899         77.8712         73.6714        -5.39693        -8.36101
           23900         78.7295         74.6060        -5.25139        -8.42434
           23901         78.1553         73.9879        -5.25571        -8.51580
           23902         79.0067         74.9447        -5.06325        -8.56831
           23903         78.4294         74.3110        -5.08536        -8.66570
           23904         79.2719         75.2898        -4.84297        -8.70621
           23905         78.6922         74.6405        -4.88418        -8.80985
           23906         79.5236         75.6411        -4.58870        -8.83713
           23907         78.9423         74.9762        -4.65040        -8.94733
           23908         79.7604         75.9981        -4.29848        -8.96009
           23909         79.1783         75.3177        -4.38214        -9.07717
           23910         79.9806         76.3606        -3.97027        -9.07406
           23911         79.3985         75.6647        -4.07743        -9.19835
           23912         80.1826         76.7281        -3.60191        -9.17796
           23913         79.6014         76.0168        -3.73418        -9.30979
           23914         80.3647         77.1001        -3.19114        -9.27063
           23915         79.7852         76.3736        -3.35023        -9.41034
           23916         80.5251         77.4762        -2.73558        -9.35085
           23917         79.9483         76.7345        -2.92329        -9.49880
           23918         80.6622         77.8557        -2.23277        -9.41733
           23919         80.0889         77.0992        -2.45099        -9.57388
           23920         80.7740         78.2381        -1.68009        -9.46868
           23921         80.2052         77.4669        -1.93081        -9.63422
           23922         80.8587         78.6226        -1.07483        -9.50343
           23923         80.2954         77.8371        -1.36015        -9.67836
           23924         80.9145         79.0087    -414.162E-03        -9.51999
           23925         80.3575         78.2091    -736.281E-03        -9.70475
           23926         80.9396         79.3954     304.906E-03        -9.51670
           23927         80.3899         78.5822    -56.3504E-03        -9.71172
           23928         80.9322         79.7819         1.08547        -9.49173
           23929         80.3907         78.9555     682.624E-03        -9.69751
           23930         80.8905         80.1674         1.93078        -9.44316
           23931         80.3581         79.3283         1.48375        -9.66020
           23932         80.8130         80.5508         2.84424        -9.36891
           23933         80.2906         79.6995         2.35028        -9.59775
           23934         80.6982         80.9311         3.82941        -9.26672
           23935         80.1864         80.0683         3.28562        -9.50796
           23936         80.5448         81.3071         4.89005        -9.13419
           23937         80.0443         80.4336         4.29335        -9.38846
           23938         80.3516         81.6776         6.03007        -8.96872
           23939         79.8631         80.7941         5.37719        -9.23669
           23940         80.1179         82.0411         7.25360        -8.76750
           23941         79.6417         81.1487         6.54108        -9.04989
           23942         79.8433         82.3964         8.56501        -8.52751
           23943         79.3796         81.4959         7.78915        -8.82510
           23944         79.5278         82.7416         9.96888        -8.24549
           23945         79.0767         81.8344         9.12576        -8.55911
           23946         79.1723         83.0752         11.4701        -7.91792
           23947         78.7333         82.1624         10.5555        -8.24845
           23948         78.7780         83.3951         13.0738        -7.54102
           23949         78.3505         82.4783         12.0833        -7.88939
           23950         78.3475         83.6993         14.7855        -7.11072
           23951         77.9302         82.7801         13.7142        -7.47792
           23952         77.8844         83.9855         16.6110        -6.62266
           23953         77.4754         83.0656         15.4539        -7.00972
           23954         77.3938         84.2511         18.5565        -6.07217
           23955         76.9905         83.3326         17.3082        -6.48016
           23956         76.8826         84.4934         20.6288        -5.45425
           23957         76.4814         83.5784         19.2834        -5.88426
           23958         76.3599         84.7093         22.8350        -4.76358
           23959         75.9561         83.8003         21.3862        -5.21674
           23960         75.8377         84.8953         25.1826        -3.99449
           23961         75.4252         83.9950         23.6239        -4.47194
           23962         75.3313         85.0479         27.6800        -3.14099
           23963         74.9021         84.1592         26.0042        -3.64386
           23964         74.8596         85.1628         30.3359        -2.19678
           23965         74.4041         84.2890         28.5355        -2.72617
           23966         74.4465         85.2356         33.1598        -1.15521
           23967         73.9526         84.3801         31.2267        -1.71218
           23968         74.1211         85.2611         36.1624    -8.95447E-03
           23969         73.5742         84.4280         34.0875    -594.936E-03
           23970         54.2969         59.9631         17.2356        -5.44737
           23971         54.1189         59.8077         17.5660        -5.59507
           23972         53.8737         59.6738         17.9026        -5.45361
           23973         54.7319         60.2530         16.5632        -5.44050
           23974         54.5478         60.0972         16.8959        -5.58888
           23975         55.1773         60.5430         15.8863        -5.43173
           23976         54.9878         60.3872         16.2203        -5.58109
           23977         55.6319         60.8324         15.2063        -5.41999
           23978         55.4378         60.6770         15.5405        -5.57053
           23979         56.0941         61.1205         14.5245        -5.40444
           23980         55.8961         60.9657         14.8576        -5.55619
           23981         56.5625         61.4063         13.8423        -5.38441
           23982         56.3612         61.2525         14.1734        -5.53730
           23983         57.0354         61.6891         13.1612        -5.35948
           23984         56.8314         61.5365         13.4893        -5.51331
           23985         57.5111         61.9680         12.4828        -5.32941
           23986         57.3051         61.8168         12.8070        -5.48388
           23987         57.9881         62.2422         11.8088        -5.29417
           23988         57.7805         62.0926         12.1282        -5.44889
           23989         58.4649         62.5111         11.1407        -5.25393
           23990         58.2561         62.3631         11.4547        -5.40845
           23991         58.9399         62.7738         10.4800        -5.20900
           23992         58.7301         62.6274         10.7880        -5.36281
           23993         59.4118         63.0299         9.82813        -5.15987
           23994         59.2013         62.8849         10.1296        -5.31245
           23995         59.8793         63.2787         9.18635        -5.10714
           23996         59.6681         63.1351         9.48094        -5.25795
           23997         60.3414         63.5201         8.55584        -5.05152
           23998         60.1295         63.3775         8.84335        -5.20001
           23999         60.7971         63.7536         7.93764        -4.99379
           24000         60.5844         63.6118         8.21795        -5.13944
           24001         61.2456         63.9792         7.33263        -4.93479
           24002         61.0320         63.8377         7.60571        -5.07711
           24003         61.6862         64.1967         6.74153        -4.87539
           24004         61.4714         64.0553         7.00745        -5.01392
           24005         62.1186         64.4064         6.16495        -4.81647
           24006         61.9023         64.2645         6.42384        -4.95079
           24007         62.5423         64.6083         5.60332        -4.75889
           24008         62.3241         64.4654         5.85541        -4.88866
           24009         62.9572         64.8026         5.05697        -4.70351
           24010         62.7368         64.6583         5.30252        -4.82842
           24011         63.3632         64.9897         4.52611        -4.65114
           24012         63.1400         64.8435         4.76541        -4.77094
           24013         63.7604         65.1700         4.01083        -4.60254
           24014         63.5340         65.0213         4.24422        -4.71705
           24015         64.1488         65.3440         3.51113        -4.55843
           24016         63.9188         65.1922         3.73897        -4.66751
           24017         64.5288         65.5120         3.02693        -4.51946
           24018         64.2946         65.3568         3.24959        -4.62303
           24019         64.9006         65.6747         2.55809        -4.48623
           24020         64.6619         65.5154         2.77594        -4.58425
           24021         65.2646         65.8326         2.10439        -4.45926
           24022         65.0208         65.6688         2.31779        -4.55174
           24023         65.6213         65.9862         1.66559        -4.43902
           24024         65.3720         65.8174         1.87490        -4.52602
           24025         65.9712         66.1362         1.24140        -4.42590
           24026         65.7158         65.9619         1.44696        -4.50751
           24027         66.3147         66.2831     831.510E-03        -4.42024
           24028         66.0529         66.1028         1.03365        -4.49659
           24029         66.6524         66.4275     435.601E-03        -4.42232
           24030         66.3837         66.2409     634.616E-03        -4.49356
           24031         66.9848         66.5701     53.3465E-03        -4.43236
           24032         66.7088         66.3766     249.509E-03        -4.49867
           24033         67.3125         66.7113    -315.583E-03        -4.45051
           24034         67.0288         66.5106    -122.026E-03        -4.51211
           24035         67.6361         66.8518    -671.508E-03        -4.47690
           24036         67.3443         66.6434    -480.338E-03        -4.53401
           24037         67.9560         66.9921        -1.01473        -4.51159
           24038         67.6559         66.7757    -825.764E-03        -4.56445
           24039         68.2729         67.1328        -1.34553        -4.55460
           24040         67.9641         66.9079        -1.15862        -4.60347
           24041         68.5872         67.2743        -1.66418        -4.60591
           24042         68.2693         67.0407        -1.47920        -4.65106
           24043         68.8994         67.4172        -1.97090        -4.66547
           24044         68.5723         67.1744        -1.78776        -4.70717
           24045         69.2101         67.5619        -2.26590        -4.73317
           24046         68.8735         67.3097        -2.08455        -4.77172
           24047         69.5196         67.7089        -2.54934        -4.80889
           24048         69.1733         67.4469        -2.36976        -4.84458
           24049         69.8285         67.8586        -2.82135        -4.89247
           24050         69.4722         67.5865        -2.64355        -4.92561
           24051         70.1370         68.0116        -3.08201        -4.98374
           24052         69.7706         67.7290        -2.90605        -5.01461
           24053         70.4455         68.1680        -3.33137        -5.08247
           24054         70.0688         67.8748        -3.15732        -5.11139
           24055         70.7543         68.3285        -3.56942        -5.18842
           24056         70.3672         68.0242        -3.39742        -5.21571
           24057         71.0637         68.4932        -3.79613        -5.30135
           24058         70.6662         68.1776        -3.62631        -5.32730
           24059         71.3739         68.6626        -4.01138        -5.42096
           24060         70.9658         68.3353        -3.84395        -5.44589
           24061         71.6850         68.8369        -4.21503        -5.54695
           24062         71.2663         68.4978        -4.05021        -5.57117
           24063         71.9972         69.0165        -4.40688        -5.67900
           24064         71.5679         68.6652        -4.24493        -5.70282
           24065         72.3106         69.2017        -4.58668        -5.81675
           24066         71.8707         68.8378        -4.42791        -5.84048
           24067         72.6250         69.3926        -4.75411        -5.95984
           24068         72.1746         69.0160        -4.59885        -5.98380
           24069         72.9405         69.5896        -4.90880        -6.10788
           24070         72.4797         69.2000        -4.75744        -6.13238
           24071         73.2570         69.7928        -5.05033        -6.26047
           24072         72.7858         69.3899        -4.90328        -6.28582
           24073         73.5743         70.0024        -5.17821        -6.41717
           24074         73.0929         69.5861        -5.03593        -6.44369
           24075         73.8921         70.2187        -5.29189        -6.57753
           24076         73.4007         69.7886        -5.15487        -6.60552
           24077         74.2102         70.4417        -5.39075        -6.74109
           24078         73.7090         69.9976        -5.25954        -6.77087
           24079         74.5282         70.6716        -5.47411        -6.90734
           24080         74.0174         70.2133        -5.34931        -6.93922
           24081         74.8455         70.9086        -5.54121        -7.07578
           24082         74.3255         70.4358        -5.42345        -7.11007
           24083         75.1618         71.1526        -5.59125        -7.24585
           24084         74.6328         70.6651        -5.48120        -7.28287
           24085         75.4763         71.4037        -5.62333        -7.41700
           24086         74.9388         70.9014        -5.52173        -7.45705
           24087         75.7886         71.6621        -5.63649        -7.58863
           24088         75.2428         71.1447        -5.54411        -7.63202
           24089         76.0977         71.9276        -5.62968        -7.76011
           24090         75.5442         71.3950        -5.54735        -7.80716
           24091         76.4029         72.2002        -5.60179        -7.93080
           24092         75.8421         71.6522        -5.53040        -7.98183
           24093         76.7032         72.4800        -5.55162        -8.10001
           24094         76.1357         71.9164        -5.49211        -8.15533
           24095         76.9978         72.7668        -5.47790        -8.26703
           24096         76.4240         72.1875        -5.43126        -8.32696
           24097         77.2854         73.0605        -5.37927        -8.43112
           24098         76.7060         72.4655        -5.34656        -8.49597
           24099         77.5651         73.3610        -5.25427        -8.59147
           24100         76.9807         72.7500        -5.23661        -8.66158
           24101         77.8355         73.6681        -5.10139        -8.74728
           24102         77.2467         73.0412        -5.09995        -8.82296
           24103         78.0954         73.9815        -4.91899        -8.89767
           24104         77.5030         73.3386        -4.93502        -8.97924
           24105         78.3433         74.3011        -4.70538        -9.04172
           24106         77.7480         73.6421        -4.74018        -9.12954
           24107         78.5779         74.6266        -4.45873        -9.17848
           24108         77.9805         73.9515        -4.51370        -9.27287
           24109         78.7976         74.9576        -4.17717        -9.30694
           24110         78.1989         74.2665        -4.25375        -9.40825
           24111         79.0008         75.2938        -3.85868        -9.42602
           24112         78.4016         74.5867        -3.95842        -9.53460
           24113         79.1859         75.6347        -3.50119        -9.53459
           24114         78.5871         74.9117        -3.62569        -9.65081
           24115         79.3512         75.9800        -3.10249        -9.63146
           24116         78.7536         75.2412        -3.25345        -9.75570
           24117         79.4949         76.3292        -2.66030        -9.71535
           24118         78.8995         75.5746        -2.83949        -9.84800
           24119         79.6153         76.6816        -2.17221        -9.78493
           24120         79.0229         75.9116        -2.38151        -9.92640
           24121         79.7104         77.0368        -1.63571        -9.83876
           24122         79.1221         76.2515        -1.87710        -9.98947
           24123         79.7786         77.3941        -1.04818        -9.87531
           24124         79.1953         76.5938        -1.32373        -10.0357
           24125         79.8180         77.7528    -406.890E-03        -9.89295
           24126         79.2405         76.9378    -718.782E-03        -10.0635
           24127         79.8267         78.1122     291.019E-03        -9.88995
           24128         79.2561         77.2828    -59.5164E-03        -10.0712
           24129         79.8030         78.4715         1.04852        -9.86442
           24130         79.2401         77.6282     656.923E-03        -10.0569
           24131         79.7451         78.8298         1.86873        -9.81437
           24132         79.1908         77.9730         1.43351        -10.0186
           24133         79.6516         79.1863         2.75489        -9.73764
           24134         79.1067         78.3166         2.27334        -9.95425
           24135         79.5208         79.5399         3.71040        -9.63192
           24136         78.9861         78.6578         3.17967        -9.86159
           24137         79.3515         79.8896         4.73881        -9.49470
           24138         78.8278         78.9959         4.15587        -9.73815
           24139         79.1427         80.2342         5.84387        -9.32328
           24140         78.6304         79.3296         5.20549        -9.58129
           24141         78.8935         80.5724         7.02946        -9.11477
           24142         78.3931         79.6579         6.33225        -9.38815
           24143         78.6036         80.9030         8.29972        -8.86600
           24144         78.1152         79.9794         7.54004        -9.15566
           24145         78.2730         81.2244         9.65899        -8.57360
           24146         77.7968         80.2929         8.83297        -8.88048
           24147         77.9026         81.5350         11.1119        -8.23389
           24148         77.4381         80.5969         10.2154        -8.55903
           24149         77.4937         81.8331         12.6632        -7.84293
           24150         77.0402         80.8897         11.6919        -8.18741
           24151         77.0488         82.1167         14.3183        -7.39645
           24152         76.6051         81.1696         13.2673        -7.76144
           24153         76.5714         82.3836         16.0825        -6.88988
           24154         76.1358         81.4346         14.9468        -7.27659
           24155         76.0668         82.6316         17.9618        -6.31831
           24156         75.6366         81.6826         16.7361        -6.72802
           24157         75.5418         82.8580         19.9626        -5.67648
           24158         75.1135         81.9112         18.6410        -6.11052
           24159         75.0056         83.0600         22.0915        -4.95876
           24160         74.5745         82.1177         20.6678        -5.41848
           24161         74.4701         83.2342         24.3560        -4.15917
           24162         74.0301         82.2991         22.8236        -4.64598
           24163         73.9506         83.3773         26.7639        -3.27136
           24164         73.4939         82.4523         25.1156        -3.78665
           24165         73.4662         83.4852         29.3236        -2.28861
           24166         72.9831         82.5735         27.5519        -2.83379
           24167         73.0410         83.5537         32.0443        -1.20390
           24168         72.5193         82.6588         30.1411        -1.78029
           24169         72.7041         83.5777         34.9362    -9.39399E-03
           24170         72.1293         82.7037         32.8925    -618.759E-03
           24171         54.3695         59.9437         17.2297        -5.73707
           24172         54.1958         59.7905         17.5607        -5.88420
           24173         53.9467         59.6545         17.8970        -5.74227
           24174         54.8043         60.2337         16.5556        -5.73066
           24175         54.6246         60.0802         16.8894        -5.87886
           24176         55.2497         60.5239         15.8759        -5.72164
           24177         55.0648         60.3704         16.2112        -5.87122
           24178         55.7043         60.8135         15.1921        -5.70887
           24179         55.5149         60.6605         15.5276        -5.86000
           24180         56.1664         61.1015         14.5057        -5.69142
           24181         55.9734         60.9493         14.8401        -5.84411
           24182         56.6344         61.3870         13.8182        -5.66860
           24183         56.4383         61.2361         14.1505        -5.82273
           24184         57.1063         61.6691         13.1317        -5.63998
           24185         56.9080         61.5197         13.4607        -5.79529
           24186         57.5805         61.9468         12.4477        -5.60534
           24187         57.3804         61.7990         12.7724        -5.76146
           24188         58.0551         62.2191         11.7682        -5.56471
           24189         57.8539         62.0732         12.0877        -5.72117
           24190         58.5286         62.4853         11.0949        -5.51831
           24191         58.3265         62.3413         11.4084        -5.67458
           24192         58.9993         62.7446         10.4294        -5.46656
           24193         58.7966         62.6025         10.7363        -5.62207
           24194         59.4657         62.9963         9.77335        -5.41006
           24195         59.2627         62.8560         10.0732        -5.56418
           24196         59.9267         63.2400         9.12812        -5.34951
           24197         59.7233         63.1012         9.42053        -5.50162
           24198         60.3810         63.4752         8.49498        -5.28574
           24199         60.1771         63.3377         8.77974        -5.43524
           24200         60.8277         63.7017         7.87501        -5.21966
           24201         60.6232         63.5651         8.15203        -5.36597
           24202         61.2660         63.9193         7.26914        -5.15223
           24203         61.0607         63.7833         7.53843        -5.29479
           24204         61.6953         64.1281         6.67812        -5.08442
           24205         61.4889         63.9921         6.93980        -5.22274
           24206         62.1151         64.3280         6.10253        -5.01722
           24207         61.9073         64.1916         6.35680        -5.15085
           24208         62.5253         64.5194         5.54281        -4.95160
           24209         62.3156         64.3821         5.78993        -5.08016
           24210         62.9257         64.7026         4.99924        -4.88848
           24211         62.7136         64.5637         5.23953        -5.01165
           24212         63.3162         64.8778         4.47198        -4.82875
           24213         63.1012         64.7369         4.70581        -4.94628
           24214         63.6971         65.0456         3.96107        -4.77324
           24215         63.4787         64.9020         4.18883        -4.88494
           24216         64.0684         65.2064         3.46646        -4.72272
           24217         63.8462         65.0597         3.68855        -4.82845
           24218         64.4307         65.3608         2.98798        -4.67787
           24219         64.2040         65.2104         3.20484        -4.77756
           24220         64.7841         65.5093         2.52543        -4.63932
           24221         64.5525         65.3547         2.73747        -4.73294
           24222         65.1293         65.6527         2.07853        -4.60763
           24223         64.8922         65.4933         2.28617        -4.69521
           24224         65.4667         65.7914         1.64696        -4.58326
           24225         65.2236         65.6267         1.85059        -4.66486
           24226         65.7968         65.9261         1.23037        -4.56661
           24227         65.5473         65.7557         1.43037        -4.64236
           24228         66.1202         66.0575     828.396E-03        -4.55804
           24229         65.8639         65.8808         1.02512        -4.62806
           24230         66.4375         66.1861     440.640E-03        -4.55781
           24231         66.1739         66.0027     634.420E-03        -4.62228
           24232         66.7494         66.3125     66.7245E-03        -4.56612
           24233         66.4779         66.1220     257.856E-03        -4.62525
           24234         67.0563         66.4374    -293.734E-03        -4.58314
           24235         66.7767         66.2394    -104.984E-03        -4.63714
           24236         67.3590         66.5614    -641.107E-03        -4.60895
           24237         67.0708         66.3554    -454.502E-03        -4.65807
           24238         67.6579         66.6849    -975.742E-03        -4.64361
           24239         67.3609         66.4706    -791.084E-03        -4.68811
           24240         67.9537         66.8086        -1.29797        -4.68713
           24241         67.6475         66.5856        -1.11509        -4.72727
           24242         68.2468         66.9330        -1.60809        -4.73946
           24243         67.9311         66.7009        -1.42686        -4.77552
           24244         68.5379         67.0585        -1.90637        -4.80051
           24245         68.2125         66.8170        -1.72670        -4.83279
           24246         68.8275         67.1857        -2.19305        -4.87019
           24247         68.4920         66.9345        -2.01487        -4.89898
           24248         69.1159         67.3149        -2.46832        -4.94834
           24249         68.7701         67.0537        -2.29161        -4.97394
           24250         69.4036         67.4467        -2.73234        -5.03478
           24251         69.0474         67.1751        -2.55711        -5.05750
           24252         69.6911         67.5815        -2.98523        -5.12930
           24253         69.3242         67.2992        -2.81152        -5.14946
           24254         69.9786         67.7196        -3.22705        -5.23167
           24255         69.6010         67.4263        -3.05495        -5.24958
           24256         70.2665         67.8614        -3.45782        -5.34164
           24257         69.8780         67.5568        -3.28745        -5.35761
           24258         70.5550         68.0073        -3.67753        -5.45892
           24259         70.1555         67.6911        -3.50904        -5.47326
           24260         70.8444         68.1575        -3.88608        -5.58321
           24261         70.4339         67.8295        -3.71966        -5.59624
           24262         71.1349         68.3125        -4.08337        -5.71418
           24263         70.7132         67.9723        -3.91924        -5.72622
           24264         71.4265         68.4724        -4.26920        -5.85149
           24265         70.9937         68.1198        -4.10763        -5.86285
           24266         71.7193         68.6376        -4.44334        -5.99476
           24267         71.2754         68.2722        -4.28464        -6.00577
           24268         72.0134         68.8083        -4.60551        -6.14362
           24269         71.5584         68.4299        -4.45000        -6.15458
           24270         72.3086         68.9847        -4.75535        -6.29765
           24271         71.8427         68.5931        -4.60341        -6.30889
           24272         72.6049         69.1671        -4.89245        -6.45643
           24273         72.1281         68.7619        -4.74451        -6.46826
           24274         72.9021         69.3556        -5.01635        -6.61950
           24275         72.4146         68.9366        -4.87287        -6.63224
           24276         73.2000         69.5503        -5.12652        -6.78639
           24277         72.7019         69.1173        -4.98799        -6.80036
           24278         73.4983         69.7515        -5.22237        -6.95661
           24279         72.9898         69.3042        -5.08934        -6.97213
           24280         73.7965         69.9592        -5.30323        -7.12964
           24281         73.2780         69.4974        -5.17629        -7.14703
           24282         74.0942         70.1736        -5.36838        -7.30495
           24283         73.5659         69.6970        -5.24816        -7.32453
           24284         74.3910         70.3947        -5.41703        -7.48197
           24285         73.8532         69.9031        -5.30421        -7.50405
           24286         74.6862         70.6226        -5.44832        -7.66010
           24287         74.1393         70.1158        -5.34362        -7.68501
           24288         74.9792         70.8572        -5.46130        -7.83872
           24289         74.4235         70.3351        -5.36550        -7.86680
           24290         75.2692         71.0988        -5.45496        -8.01720
           24291         74.7052         70.5610        -5.36890        -8.04876
           24292         75.5554         71.3471        -5.42823        -8.19485
           24293         74.9836         70.7936        -5.35278        -8.23022
           24294         75.8369         71.6021        -5.37993        -8.37095
           24295         75.2578         71.0327        -5.31604        -8.41047
           24296         76.1127         71.8638        -5.30882        -8.54478
           24297         75.5268         71.2784        -5.25747        -8.58877
           24298         76.3818         72.1321        -5.21358        -8.71554
           24299         75.7897         71.5305        -5.17584        -8.76434
           24300         76.6429         72.4068        -5.09281        -8.88242
           24301         76.0452         71.7889        -5.06977        -8.93637
           24302         76.8949         72.6878        -4.94500        -9.04456
           24303         76.2924         72.0535        -4.93786        -9.10402
           24304         77.1365         72.9749        -4.76860        -9.20106
           24305         76.5298         72.3241        -4.77857        -9.26637
           24306         77.3662         73.2677        -4.56192        -9.35096
           24307         76.7561         72.6004        -4.59033        -9.42248
           24308         77.5827         73.5661        -4.32323        -9.49328
           24309         76.9700         72.8823        -4.37144        -9.57137
           24310         77.7844         73.8698        -4.05067        -9.62697
           24311         77.1698         73.1695        -4.12014        -9.71200
           24312         77.9697         74.1784        -3.74232        -9.75090
           24313         77.3542         73.4616        -3.83456        -9.84326
           24314         78.1370         74.4915        -3.39613        -9.86392
           24315         77.5213         73.7582        -3.51275        -9.96400
           24316         78.2846         74.8088        -3.01000        -9.96478
           24317         77.6696         74.0591        -3.15268        -10.0730
           24318         78.4106         75.1296        -2.58170        -10.0522
           24319         77.7974         74.3638        -2.75220        -10.1689
           24320         78.5134         75.4537        -2.10891        -10.1247
           24321         77.9027         74.6717        -2.30909        -10.2505
           24322         78.5911         75.7803        -1.58922        -10.1809
           24323         77.9839         74.9824        -1.82102        -10.3161
           24324         78.6419         76.1089        -1.02010        -10.2192
           24325         78.0392         75.2954        -1.28558        -10.3644
           24326         78.6639         76.4389    -398.925E-03        -10.2379
           24327         78.0666         75.6100    -700.233E-03        -10.3936
           24328         78.6553         76.7696     277.035E-03        -10.2352
           24329         78.0644         75.9257    -62.3706E-03        -10.4019
           24330         78.6144         77.1002         1.01062        -10.2092
           24331         78.0308         76.2417     630.741E-03        -10.3875
           24332         78.5396         77.4300         1.80481        -10.1578
           24333         77.9640         76.5572         1.38193        -10.3484
           24334         78.4291         77.7581         2.66268        -10.0788
           24335         77.8625         76.8716         2.19415        -10.2824
           24336         78.2815         78.0836         3.58745        -9.96989
           24337         77.7247         77.1839         3.07047        -10.1871
           24338         78.0956         78.4056         4.58250        -9.82838
           24339         77.5492         77.4933         4.01409        -10.0601
           24340         77.8704         78.7229         5.65133        -9.65152
           24341         77.3349         77.7988         5.02835        -9.89860
           24342         77.6049         79.0344         6.79764        -9.43632
           24343         77.0809         78.0994         6.11673        -9.69968
           24344         77.2990         79.3389         8.02528        -9.17952
           24345         76.7867         78.3939         7.28289        -9.46017
           24346         76.9527         79.6351         9.33835        -8.87761
           24347         76.4520         78.6810         8.53067        -9.17664
           24348         76.5668         79.9214         10.7411        -8.52678
           24349         76.0774         78.9596         9.86412        -8.84535
           24350         76.1427         80.1963         12.2382        -8.12293
           24351         75.6639         79.2280         11.2875        -8.46229
           24352         75.6829         80.4581         13.8345        -7.66162
           24353         75.2135         79.4847         12.8055        -8.02311
           24354         75.1909         80.7046         15.5351        -7.13807
           24355         74.7293         79.7280         14.4227        -7.52308
           24356         74.6720         80.9339         17.3455        -6.54713
           24357         74.2155         79.9559         16.1445        -6.95717
           24358         74.1330         81.1434         19.2719        -5.88329
           24359         73.6782         80.1661         17.9765        -6.31989
           24360         73.5832         81.3305         21.3204        -5.14062
           24361         73.1253         80.3562         19.9245        -5.60541
           24362         73.0344         81.4922         23.4982        -4.31282
           24363         72.5674         80.5235         21.9950        -4.80745
           24364         72.5019         81.6251         25.8126        -3.39317
           24365         72.0182         80.6649         24.1952        -3.91932
           24366         72.0052         81.7256         28.2718        -2.37458
           24367         71.4949         80.7771         26.5325        -2.93396
           24368         71.5683         81.7894         30.8845        -1.24956
           24369         71.0193         80.8562         29.0152        -1.84381
           24370         71.2207         81.8119         33.6607    -9.82252E-03
           24371         70.6184         80.8979         31.6522    -641.047E-03
           24372         54.4511         59.9293         17.2246        -6.02692
           24373         54.2821         59.7787         17.5567        -6.17347
           24374         54.0284         59.6399         17.8927        -6.03082
           24375         54.8861         60.2197         16.5482        -6.02112
           24376         54.7112         60.0688         16.8834        -6.16918
           24377         55.3320         60.5104         15.8649        -6.01188
           24378         55.1520         60.3596         16.2019        -6.16178
           24379         55.7871         60.8003         15.1763        -5.99795
           24380         55.6028         60.6502         15.5136        -6.14984
           24381         56.2494         61.0885         14.4843        -5.97835
           24382         56.0618         60.9395         14.8205        -6.13221
           24383         56.7172         61.3739         13.7908        -5.95236
           24384         56.5269         61.2263         14.1246        -6.10800
           24385         57.1884         61.6553         13.0977        -5.91954
           24386         56.9962         61.5096         13.4279        -6.07662
           24387         57.6610         61.9317         12.4073        -5.87970
           24388         57.4676         61.7880         12.7326        -6.03779
           24389         58.1332         62.2021         11.7214        -5.83293
           24390         57.9390         62.0606         12.0410        -5.99147
           24391         58.6031         62.4655         11.0421        -5.77956
           24392         58.4085         62.3262         11.3551        -5.93791
           24393         59.0691         62.7211         10.3712        -5.72010
           24394         58.8743         62.5840         10.6770        -5.87760
           24395         59.5296         62.9681         9.71049        -5.65529
           24396         59.3348         62.8332         10.0085        -5.81122
           24397         59.9833         63.2061         9.06142        -5.58595
           24398         59.7885         63.0730         9.35137        -5.73963
           24399         60.4290         63.4346         8.42537        -5.51308
           24400         60.2340         63.3030         8.70704        -5.66380
           24401         60.8657         63.6534         7.80350        -5.43770
           24402         60.6704         63.5229         8.07683        -5.58481
           24403         61.2928         63.8624         7.19676        -5.36090
           24404         61.0969         63.7325         7.46181        -5.50381
           24405         61.7097         64.0615         6.60591        -5.28379
           24406         61.5127         63.9318         6.86286        -5.42195
           24407         62.1159         64.2510         6.03153        -5.20747
           24408         61.9174         64.1208         6.28064        -5.34041
           24409         62.5113         64.4310         5.47402        -5.13301
           24410         62.3109         64.2999         5.71561        -5.26032
           24411         62.8959         64.6020         4.93360        -5.06142
           24412         62.6929         64.4693         5.16808        -5.18277
           24413         63.2697         64.7644         4.41039        -4.99366
           24414         63.0637         64.6295         4.63819        -5.10880
           24415         63.6329         64.9187         3.90436        -4.93064
           24416         63.4233         64.7811         4.12592        -5.03936
           24417         63.9859         65.0655         3.41537        -4.87315
           24418         63.7721         64.9245         3.63117        -4.97534
           24419         64.3291         65.2053         2.94319        -4.82193
           24420         64.1105         65.0604         3.15371        -4.91752
           24421         64.6629         65.3388         2.48754        -4.77763
           24422         64.4391         65.1894         2.69325        -4.86661
           24423         64.9879         65.4667         2.04805        -4.74081
           24424         64.7582         65.3123         2.24942        -4.82323
           24425         65.3047         65.5896         1.62434        -4.71196
           24426         65.0686         65.4296         1.82180        -4.78790
           24427         65.6138         65.7082         1.21598        -4.69148
           24428         65.3709         65.5421         1.40995        -4.76108
           24429         65.9160         65.8231     822.532E-03        -4.67971
           24430         65.6657         65.6506         1.01339        -4.74312
           24431         66.2118         65.9350     443.540E-03        -4.67690
           24432         65.9537         65.7555     631.651E-03        -4.73433
           24433         66.5019         66.0446     78.5598E-03        -4.68326
           24434         66.2356         65.8576     264.243E-03        -4.73491
           24435         66.7870         66.1524    -272.847E-03        -4.69892
           24436         66.5120         65.9576    -89.3034E-03        -4.74504
           24437         67.0676         66.2590    -611.104E-03        -4.72396
           24438         66.7837         66.0560    -429.448E-03        -4.76480
           24439         67.3445         66.3650    -936.609E-03        -4.75840
           24440         67.0511         66.1534    -756.629E-03        -4.79424
           24441         67.6181         66.4710        -1.24974        -4.80223
           24442         67.3151         66.2504        -1.07125        -4.83335
           24443         67.8892         66.5775        -1.55083        -4.85538
           24444         67.5761         66.3476        -1.37370        -4.88208
           24445         68.1581         66.6849        -1.84019        -4.91775
           24446         67.8348         66.4454        -1.66432        -4.94034
           24447         68.4255         66.7938        -2.11809        -4.98921
           24448         68.0917         66.5443        -1.94341        -5.00798
           24449         68.6919         66.9046        -2.38476        -5.06958
           24450         68.3473         66.6448        -2.21124        -5.08484
           24451         68.9576         67.0178        -2.64039        -5.15866
           24452         68.6020         66.7473        -2.46803        -5.17073
           24453         69.2230         67.1337        -2.88510        -5.25623
           24454         68.8564         66.8523        -2.71396        -5.26542
           24455         69.4886         67.2527        -3.11901        -5.36202
           24456         69.1107         66.9600        -2.94916        -5.36866
           24457         69.7546         67.3751        -3.34216        -5.47575
           24458         69.3653         67.0710        -3.17372        -5.48016
           24459         70.0214         67.5014        -3.55454        -5.59714
           24460         69.6206         67.1854        -3.38766        -5.59962
           24461         70.2891         67.6318        -3.75609        -5.72584
           24462         69.8768         67.3037        -3.59097        -5.72673
           24463         70.5579         67.7666        -3.94673        -5.86151
           24464         70.1340         67.4262        -3.78357        -5.86113
           24465         70.8280         67.9062        -4.12627        -6.00379
           24466         70.3925         67.5530        -3.96536        -6.00245
           24467         71.0994         68.0506        -4.29451        -6.15229
           24468         70.6522         67.6846        -4.13614        -6.15032
           24469         71.3722         68.2003        -4.45119        -6.30661
           24470         70.9134         67.8210        -4.29569        -6.30432
           24471         71.6462         68.3553        -4.59596        -6.46630
           24472         71.1759         67.9625        -4.44373        -6.46402
           24473         71.9214         68.5160        -4.72845        -6.63094
           24474         71.4397         68.1094        -4.57989        -6.62898
           24475         72.1976         68.6824        -4.84821        -6.80004
           24476         71.7047         68.2618        -4.70378        -6.79874
           24477         72.4745         68.8548        -4.95472        -6.97311
           24478         71.9705         68.4199        -4.81493        -6.97278
           24479         72.7520         69.0332        -5.04743        -7.14964
           24480         72.2371         68.5837        -4.91282        -7.15062
           24481         73.0295         69.2178        -5.12570        -7.32909
           24482         72.5040         68.7535        -4.99685        -7.33170
           24483         73.3067         69.4086        -5.18882        -7.51091
           24484         72.7708         68.9294        -5.06636        -7.51547
           24485         73.5830         69.6058        -5.23603        -7.69449
           24486         73.0371         69.1113        -5.12064        -7.70134
           24487         73.8579         69.8094        -5.26649        -7.87923
           24488         73.3023         69.2995        -5.15890        -7.88870
           24489         74.1307         70.0195        -5.27929        -8.06448
           24490         73.5658         69.4938        -5.18027        -8.07692
           24491         74.4006         70.2359        -5.27345        -8.24958
           24492         73.8269         69.6944        -5.18383        -8.26531
           24493         74.6668         70.4588        -5.24792        -8.43381
           24494         74.0847         69.9012        -5.16858        -8.45318
           24495         74.9285         70.6881        -5.20156        -8.61645
           24496         74.3385         70.1142        -5.13343        -8.63980
           24497         75.1846         70.9236        -5.13317        -8.79671
           24498         74.5872         70.3333        -5.07725        -8.82439
           24499         75.4340         71.1653        -5.04146        -8.97379
           24500         74.8300         70.5585        -4.99879        -9.00616
           24501         75.6756         71.4131        -4.92508        -9.14684
           24502         75.0655         70.7896        -4.89676        -9.18425
           24503         75.9083         71.6668        -4.78255        -9.31498
           24504         75.2928         71.0265        -4.76977        -9.35780
           24505         76.1306         71.9263        -4.61237        -9.47726
           24506         75.5104         71.2690        -4.61635        -9.52586
           24507         76.3412         72.1912        -4.41291        -9.63270
           24508         75.7170         71.5170        -4.43494        -9.68747
           24509         76.5387         72.4613        -4.18247        -9.78028
           24510         75.9113         71.7702        -4.22393        -9.84161
           24511         76.7214         72.7364        -3.91926        -9.91891
           24512         76.0917         72.0283        -3.98159        -9.98718
           24513         76.8879         73.0162        -3.62142        -10.0474
           24514         76.2567         72.2910        -3.70611        -10.1231
           24515         77.0365         73.3002        -3.28696        -10.1647
           24516         76.4046         72.5581        -3.39562        -10.2481
           24517         77.1653         73.5880        -2.91386        -10.2693
           24518         76.5337         72.8291        -3.04814        -10.3609
           24519         77.2728         73.8793        -2.49995        -10.3600
           24520         76.6424         73.1036        -2.66160        -10.4603
           24521         77.3571         74.1736        -2.04301        -10.4353
           24522         76.7288         73.3813        -2.23387        -10.5448
           24523         77.4164         74.4703        -1.54071        -10.4938
           24524         76.7911         73.6615        -1.76270        -10.6129
           24525         77.4489         74.7690    -990.638E-03        -10.5337
           24526         76.8275         73.9439        -1.24577        -10.6631
           24527         77.4526         75.0689    -390.271E-03        -10.5534
           24528         76.8363         74.2278    -680.670E-03        -10.6936
           24529         77.4260         75.3695     263.003E-03        -10.5511
           24530         76.8155         74.5127    -64.8945E-03        -10.7026
           24531         77.3671         75.6701     971.889E-03        -10.5247
           24532         76.7634         74.7979     604.156E-03        -10.6882
           24533         77.2743         75.9699         1.73920        -10.4721
           24534         76.6783         75.0828         1.32917        -10.6483
           24535         77.1461         76.2683         2.56787        -10.3911
           24536         76.5585         75.3666         2.11293        -10.5808
           24537         76.9810         76.5643         3.46094        -10.2792
           24538         76.4026         75.6486         2.95834        -10.4832
           24539         76.7777         76.8571         4.42156        -10.1338
           24540         76.2093         75.9280         3.86841        -10.3529
           24541         76.5352         77.1457         5.45304        -9.95202
           24542         75.9773         76.2039         4.84626        -10.1872
           24543         76.2528         77.4290         6.55882        -9.73076
           24544         75.7059         76.4753         5.89513        -9.98309
           24545         75.9302         77.7061         7.74250        -9.46668
           24546         75.3944         76.7413         7.01844        -9.73726
           24547         75.5676         77.9757         9.00790        -9.15616
           24548         75.0430         77.0007         8.21974        -9.44620
           24549         75.1656         78.2364         10.3590        -8.79527
           24550         74.6518         77.2525         9.50279        -9.10607
           24551         74.7257         78.4868         11.8001        -8.37976
           24552         74.2222         77.4952         10.8715        -8.71272
           24553         74.2506         78.7254         13.3356        -7.90501
           24554         73.7561         77.7275         12.3302        -8.26165
           24555         73.7437         78.9504         14.9704        -7.36607
           24556         73.2566         77.9478         13.8832        -7.74798
           24557         73.2103         79.1598         16.7096        -6.75756
           24558         72.7279         78.1543         15.5354        -7.16644
           24559         72.6572         79.3513         18.5588        -6.07370
           24560         72.1762         78.3450         17.2919        -6.51135
           24561         72.0937         79.5226         20.5240        -5.30829
           24562         71.6095         78.5177         19.1583        -5.77657
           24563         71.5317         79.6709         22.6117        -4.45471
           24564         71.0383         78.6700         21.1406        -4.95554
           24565         70.9866         79.7930         24.8290        -3.50587
           24566         70.4763         78.7990         23.2455        -4.04123
           24567         70.4780         79.8856         27.1835        -2.45427
           24568         69.9409         78.9015         25.4800        -3.02617
           24569         70.0300         79.9445         29.6836        -1.29201
           24570         69.4542         78.9739         27.8519        -1.90242
           24571         69.6725         79.9653         32.3389    -10.2393E-03
           24572         69.0432         79.0121         30.3699    -661.658E-03
           24573         54.5428         59.9210         17.2206        -6.31719
           24574         54.3788         59.7734         17.5543        -6.46316
           24575         54.1196         59.6312         17.8903        -6.31952
           24576         54.9787         60.2121         16.5410        -6.31214
           24577         54.8088         60.0642         16.8782        -6.46015
           24578         55.4256         60.5035         15.8531        -6.30269
           24579         55.2508         60.3559         16.1923        -6.45306
           24580         55.8815         60.7941         15.1588        -6.28748
           24581         55.7028         60.6473         15.4983        -6.44034
           24582         56.3445         61.0827         14.4601        -6.26544
           24583         56.1627         60.9373         14.7984        -6.42073
           24584         56.8123         61.3681         13.7594        -6.23583
           24585         56.6284         61.2245         14.0949        -6.39329
           24586         57.2829         61.6490         13.0588        -6.19821
           24587         57.0976         61.5076         13.3903        -6.35742
           24588         57.7540         61.9242         12.3608        -6.15244
           24589         57.5679         61.7852         12.6869        -6.31287
           24590         58.2236         62.1925         11.6676        -6.09870
           24591         58.0372         62.0561         11.9874        -6.25969
           24592         58.6897         62.4529         10.9815        -6.03743
           24593         58.5034         62.3192         11.2940        -6.19823
           24594         59.1505         62.7044         10.3045        -5.96927
           24595         58.9646         62.5733         10.6090        -6.12910
           24596         59.6045         62.9464         9.63855        -5.89510
           24597         59.4189         62.8176         9.93454        -6.05316
           24598         60.0501         63.1781         8.98522        -5.81593
           24599         59.8649         63.0515         9.27239        -5.97142
           24600         60.4863         63.3993         8.34601        -5.73288
           24601         60.3013         63.2745         8.62419        -5.88503
           24602         60.9122         63.6097         7.72212        -5.64716
           24603         60.7270         63.4861         7.99130        -5.79524
           24604         61.3269         63.8092         7.11454        -5.56000
           24605         61.1412         63.6864         7.37484        -5.70336
           24606         61.7301         63.9978         6.52402        -5.47265
           24607         61.5434         63.8752         6.77569        -5.61070
           24608         62.1214         64.1758         5.95111        -5.38632
           24609         61.9332         64.0528         6.19449        -5.51855
           24610         62.5008         64.3436         5.39616        -5.30219
           24611         62.3105         64.2195         5.63165        -5.42819
           24612         62.8682         64.5015         4.85935        -5.22138
           24613         62.6752         64.3757         5.08742        -5.34080
           24614         63.2238         64.6500         4.34070        -5.14492
           24615         63.0276         64.5220         4.56186        -5.25750
           24616         63.5681         64.7898         3.84011        -5.07376
           24617         63.3680         64.6588         4.05488        -5.17932
           24618         63.9013         64.9216         3.35735        -5.00877
           24619         63.6967         64.7870         3.56628        -5.10719
           24620         64.2241         65.0458         2.89211        -4.95069
           24621         64.0144         64.9071         3.09573        -5.04194
           24622         64.5369         65.1634         2.44400        -4.90021
           24623         64.3215         65.0198         2.64285        -4.98429
           24624         64.8405         65.2749         2.01260        -4.85789
           24625         64.6188         65.1260         2.20718        -4.93487
           24626         65.1354         65.3811         1.59741        -4.82424
           24627         64.9069         65.2264         1.78820        -4.89423
           24628         65.4223         65.4827         1.19794        -4.79963
           24629         65.1865         65.3216         1.38539        -4.86279
           24630         65.7020         65.5803     813.663E-03        -4.78441
           24631         65.4583         65.4124     998.205E-03        -4.84091
           24632         65.9751         65.6748     444.067E-03        -4.77880
           24633         65.7232         65.4996     626.077E-03        -4.82888
           24634         66.2424         65.7666     88.6388E-03        -4.78299
           24635         65.9817         65.5837     268.462E-03        -4.82688
           24636         66.5045         65.8565    -253.121E-03        -4.79710
           24637         66.2347         65.6655    -75.1792E-03        -4.83505
           24638         66.7621         65.9451    -581.690E-03        -4.82117
           24639         66.4828         65.7456    -405.362E-03        -4.85347
           24640         67.0159         66.0328    -897.517E-03        -4.85521
           24641         66.7267         65.8245    -722.578E-03        -4.88214
           24642         67.2664         66.1204        -1.20102        -4.89918
           24643         66.9671         65.9028        -1.02728        -4.92103
           24644         67.5143         66.2083        -1.49258        -4.95298
           24645         67.2045         65.9811        -1.31990        -4.97007
           24646         67.7602         66.2970        -1.77255        -5.01648
           24647         67.4396         66.0599        -1.60081        -5.02912
           24648         68.0045         66.3870        -2.04122        -5.08953
           24649         67.6730         66.1397        -1.87036        -5.09803
           24650         68.2478         66.4787        -2.29886        -5.17193
           24651         67.9051         66.2208        -2.12885        -5.17661
           24652         68.4906         66.5725        -2.54569        -5.26344
           24653         68.1364         66.3038        -2.37652        -5.26463
           24654         68.7331         66.6688        -2.78186        -5.36383
           24655         68.3673         66.3890        -2.61358        -5.36184
           24656         68.9759         66.7680        -3.00750        -5.47280
           24657         68.5983         66.4768        -2.84020        -5.46796
           24658         69.2192         66.8705        -3.22268        -5.59006
           24659         68.8298         66.5675        -3.05647        -5.58269
           24660         69.4633         66.9765        -3.42742        -5.71528
           24661         69.0619         66.6615        -3.26244        -5.70571
           24662         69.7084         67.0863        -3.62168        -5.84812
           24663         69.2950         66.7591        -3.45813        -5.83666
           24664         69.9547         67.2003        -3.80539        -5.98820
           24665         69.5292         66.8605        -3.64349        -5.97519
           24666         70.2024         67.3187        -3.97839        -6.13516
           24667         69.7648         66.9660        -3.81841        -6.12091
           24668         70.4515         67.4417        -4.14050        -6.28857
           24669         70.0017         67.0758        -3.98274        -6.27340
           24670         70.7019         67.5696        -4.29146        -6.44801
           24671         70.2402         67.1903        -4.13626        -6.43225
           24672         70.9538         67.7025        -4.43098        -6.61303
           24673         70.4800         67.3095        -4.27871        -6.59701
           24674         71.2070         67.8406        -4.55868        -6.78317
           24675         70.7213         67.4337        -4.40976        -6.76721
           24676         71.4612         67.9842        -4.67413        -6.95794
           24677         70.9637         67.5630        -4.52903        -6.94237
           24678         71.7163         68.1333        -4.77687        -7.13682
           24679         71.2073         67.6976        -4.63606        -7.12196
           24680         71.9720         68.2881        -4.86632        -7.31928
           24681         71.4515         67.8376        -4.73037        -7.30548
           24682         72.2279         68.4486        -4.94190        -7.50477
           24683         71.6963         67.9831        -4.81137        -7.49234
           24684         72.4835         68.6151        -5.00292        -7.69270
           24685         71.9410         68.1343        -4.87845        -7.68199
           24686         72.7384         68.7874        -5.04863        -7.88245
           24687         72.1853         68.2912        -4.93090        -7.87380
           24688         72.9920         68.9658        -5.07823        -8.07341
           24689         72.4287         68.4538        -4.96796        -8.06716
           24690         73.2436         69.1502        -5.09085        -8.26490
           24691         72.6704         68.6222        -4.98881        -8.26139
           24692         73.4924         69.3406        -5.08552        -8.45622
           24693         72.9099         68.7964        -4.99254        -8.45580
           24694         73.7377         69.5370        -5.06124        -8.64664
           24695         73.1462         68.9765        -4.97818        -8.64968
           24696         73.9785         69.7394        -5.01690        -8.83541
           24697         73.3786         69.1623        -4.94470        -8.84225
           24698         74.2139         69.9477        -4.95133        -9.02172
           24699         73.6061         69.3538        -4.89097        -9.03274
           24700         74.4427         70.1618        -4.86328        -9.20474
           24701         73.8276         69.5510        -4.81581        -9.22031
           24702         74.6639         70.3815        -4.75144        -9.38360
           24703         74.0422         69.7537        -4.71795        -9.40408
           24704         74.8762         70.6068        -4.61439        -9.55736
           24705         74.2485         69.9618        -4.59605        -9.58316
           24706         75.0783         70.8374        -4.45065        -9.72508
           24707         74.4453         70.1752        -4.44869        -9.75657
           24708         75.2688         71.0732        -4.25865        -9.88572
           24709         74.6313         70.3936        -4.27436        -9.92332
           24710         75.4463         71.3139        -4.03676        -10.0382
           24711         74.8050         70.6169        -4.07148        -10.0824
           24712         75.6091         71.5592        -3.78323        -10.1815
           24713         74.9650         70.8447        -3.83839        -10.2326
           24714         75.7558         71.8088        -3.49625        -10.3143
           24715         75.1097         71.0769        -3.57336        -10.3728
           24716         75.8847         72.0624        -3.17392        -10.4355
           24717         75.2374         71.3131        -3.27454        -10.5018
           24718         75.9940         72.3196        -2.81427        -10.5437
           24719         75.3464         71.5529        -2.94005        -10.6182
           24720         76.0820         72.5801        -2.41523        -10.6375
           24721         75.4351         71.7961        -2.56790        -10.7208
           24722         76.1469         72.8433        -1.97466        -10.7154
           24723         75.5016         72.0421        -2.15602        -10.8081
           24724         76.1869         73.1088        -1.49031        -10.7760
           24725         75.5441         72.2906        -1.70226        -10.8785
           24726         76.2001         73.3761    -959.870E-03        -10.8175
           24727         75.5609         72.5410        -1.20440        -10.9304
           24728         76.1848         73.6446    -380.943E-03        -10.8382
           24729         75.5500         72.7929    -660.138E-03        -10.9621
           24730         76.1392         73.9138     248.965E-03        -10.8362
           24731         75.5098         73.0457    -67.0804E-03        -10.9718
           24732         76.0615         74.1830     932.422E-03        -10.8094
           24733         75.4383         73.2989     577.236E-03        -10.9574
           24734         75.9500         74.4515         1.67209        -10.7558
           24735         75.3340         73.5517         1.27535        -10.9169
           24736         75.8032         74.7187         2.47073        -10.6730
           24737         75.1952         73.8036         2.02990        -10.8480
           24738         75.6197         74.9838         3.33119        -10.5585
           24739         75.0205         74.0539         2.84359        -10.7483
           24740         75.3982         75.2461         4.25644        -10.4096
           24741         74.8085         74.3019         3.71923        -10.6152
           24742         75.1378         75.5046         5.24954        -10.2234
           24743         74.5581         74.5468         4.65973        -10.4458
           24744         74.8377         75.7584         6.31369        -9.99670
           24745         74.2685         74.7877         5.66810        -10.2370
           24746         74.4978         76.0067         7.45222        -9.72610
           24747         73.9392         75.0238         6.74747        -9.98553
           24748         74.1181         76.2482         8.66863        -9.40789
           24749         73.5702         75.2541         7.90111        -9.68778
           24750         73.6995         76.4820         9.96660        -9.03801
           24751         73.1621         75.4777         9.13245        -9.33982
           24752         73.2435         76.7066         11.3500        -8.61209
           24753         72.7158         75.6934         10.4451        -8.93737
           24754         72.7526         76.9208         12.8230        -8.12537
           24755         72.2336         75.8999         11.8429        -8.47579
           24756         72.2305         77.1229         14.3901        -7.57269
           24757         71.7184         76.0959         13.3299        -7.95006
           24758         71.6824         77.3112         16.0558        -6.94847
           24759         71.1747         76.2798         14.9105        -7.35470
           24760         71.1151         77.4838         17.8255        -6.24670
           24761         70.6086         76.4500         16.5894        -6.68381
           24762         70.5380         77.6383         19.7045        -5.46089
           24763         70.0280         76.6043         18.3717        -5.93100
           24764         69.9632         77.7724         21.6991        -4.58408
           24765         69.4437         76.7407         20.2630        -5.08941
           24766         69.4059         77.8830         23.8157        -3.60884
           24767         68.8694         76.8564         22.2693        -4.15167
           24768         68.8860         77.9670         26.0617        -2.52726
           24769         68.3226         76.9486         24.3974        -3.10992
           24770         68.4278         78.0207         28.4448        -1.33097
           24771         67.8255         77.0139         26.6546        -1.95577
           24772         68.0615         78.0397         30.9743    -10.6337E-03
           24773         67.4056         77.0485         29.0489    -680.428E-03
           24774         54.6458         59.9200         17.2180        -6.60818
           24775         54.4871         59.7760         17.5537        -6.75359
           24776         54.2216         59.6295         17.8899        -6.60865
           24777         55.0832         60.2121         16.5342        -6.60406
           24778         54.9187         60.0678         16.8739        -6.75210
           24779         55.5316         60.5045         15.8406        -6.59441
           24780         55.3625         60.3607         16.1825        -6.74541
           24781         55.9889         60.7962         15.1393        -6.57774
           24782         55.8162         60.6534         15.4816        -6.73182
           24783         56.4530         61.0855         14.4327        -6.55292
           24784         56.2777         60.9444         14.7736        -6.70994
           24785         56.9213         61.3712         13.7234        -6.51916
           24786         56.7443         61.2322         14.0612        -6.67880
           24787         57.3914         61.6517         13.0141        -6.47605
           24788         57.2136         61.5153         13.3472        -6.63780
           24789         57.8610         61.9256         12.3074        -6.42353
           24790         57.6831         61.7921         12.6345        -6.58672
           24791         58.3279         62.1918         11.6059        -6.36187
           24792         58.1502         62.0613         11.9259        -6.52572
           24793         58.7898         62.4489         10.9121        -6.29163
           24794         58.6128         62.3215         11.2239        -6.45528
           24795         59.2450         62.6960         10.2282        -6.21366
           24796         59.0688         62.5716         10.5312        -6.37620
           24797         59.6916         62.9323         9.55640        -6.12898
           24798         59.5163         62.8107         9.85007        -6.28949
           24799         60.1284         63.1572         8.89842        -6.03880
           24800         59.9538         63.0380         9.18243        -6.19637
           24801         60.5541         63.3704         8.25581        -5.94442
           24802         60.3799         63.2532         8.53004        -6.09820
           24803         60.9678         63.5715         7.62983        -5.84724
           24804         60.7938         63.4557         7.89433        -5.99643
           24805         61.3690         63.7606         7.02148        -5.74864
           24806         61.1945         63.6457         7.27646        -5.89253
           24807         61.7572         63.9377         6.43150        -5.65004
           24808         61.5818         63.8231         6.67729        -5.78799
           24809         62.1322         64.1033         5.86040        -5.55277
           24810         61.9552         63.9883         6.09741        -5.68426
           24811         62.4940         64.2577         5.30845        -5.45814
           24812         62.3148         64.1415         5.53719        -5.58272
           24813         62.8428         64.4014         4.77576        -5.36734
           24814         62.6607         64.2834         4.99678        -5.48467
           24815         63.1788         64.5351         4.26226        -5.28149
           24816         62.9932         64.4146         4.47615        -5.39133
           24817         63.5026         64.6594         3.76775        -5.20160
           24818         63.3128         64.5357         3.97512        -5.30377
           24819         63.8147         64.7750         3.29189        -5.12856
           24820         63.6200         64.6475         3.49335        -5.22297
           24821         64.1156         64.8827         2.83428        -5.06317
           24822         63.9154         64.7507         3.03044        -5.14980
           24823         64.4061         64.9833         2.39444        -5.00611
           24824         64.1997         64.8462         2.58587        -5.08500
           24825         64.6869         65.0775         1.97183        -4.95796
           24826         64.4738         64.9348         2.15909        -5.02920
           24827         64.9586         65.1661         1.56587        -4.91920
           24828         64.7382         65.0172         1.74949        -4.98293
           24829         65.2221         65.2498         1.17598        -4.89022
           24830         64.9939         65.0942         1.35645        -4.94662
           24831         65.4781         65.3293     801.560E-03        -4.87131
           24832         65.2416         65.1666     979.332E-03        -4.92061
           24833         65.7274         65.4055     442.017E-03        -4.86270
           24834         65.4821         65.2352     617.498E-03        -4.90513
           24835         65.9708         65.4788     96.7732E-03        -4.86455
           24836         65.7162         65.3006     270.328E-03        -4.90037
           24837         66.2088         65.5501    -234.733E-03        -4.87694
           24838         65.9447         65.3634    -62.7813E-03        -4.90643
           24839         66.4424         65.6199    -553.036E-03        -4.89988
           24840         66.1683         65.4244    -382.406E-03        -4.92335
           24841         66.6721         65.6888    -858.633E-03        -4.93336
           24842         66.3876         65.4842    -689.091E-03        -4.95111
           24843         66.8986         65.7573        -1.15199        -4.97731
           24844         66.6034         65.5432    -983.339E-03        -4.98963
           24845         67.1224         65.8259        -1.43353        -5.03159
           24846         66.8164         65.6020        -1.26562        -5.03882
           24847         67.3443         65.8952        -1.70363        -5.09606
           24848         67.0270         65.6612        -1.53635        -5.09852
           24849         67.5647         65.9657        -1.96264        -5.17051
           24850         67.2359         65.7212        -1.79591        -5.16853
           24851         67.7841         66.0376        -2.21084        -5.25474
           24852         67.4437         65.7824        -2.04463        -5.24863
           24853         68.0030         66.1115        -2.44847        -5.34848
           24854         67.6507         65.8452        -2.28278        -5.33858
           24855         68.2218         66.1876        -2.67573        -5.45146
           24856         67.8575         65.9101        -2.51061        -5.43809
           24857         68.4409         66.2665        -2.89276        -5.56337
           24858         68.0644         65.9773        -2.72829        -5.54686
           24859         68.6606         66.3483        -3.09965        -5.68390
           24860         68.2717         66.0472        -2.93595        -5.66457
           24861         68.8812         66.4334        -3.29645        -5.81269
           24862         68.4799         66.1201        -3.13366        -5.79087
           24863         69.1029         66.5220        -3.48314        -5.94937
           24864         68.6891         66.1963        -3.32145        -5.92539
           24865         69.3258         66.6145        -3.65966        -6.09357
           24866         68.8995         66.2761        -3.49930        -6.06775
           24867         69.5502         66.7111        -3.82588        -6.24487
           24868         69.1113         66.3596        -3.66712        -6.21754
           24869         69.7761         66.8119        -3.98163        -6.40286
           24870         69.3246         66.4472        -3.82476        -6.37433
           24871         70.0034         66.9173        -4.12669        -6.56708
           24872         69.5394         66.5389        -3.97205        -6.53768
           24873         70.2322         67.0273        -4.26076        -6.73706
           24874         69.7557         66.6351        -4.10873        -6.70712
           24875         70.4624         67.1422        -4.38350        -6.91233
           24876         69.9735         66.7359        -4.23450        -6.88218
           24877         70.6938         67.2621        -4.49451        -7.09238
           24878         70.1926         66.8414        -4.34899        -7.06235
           24879         70.9261         67.3872        -4.59333        -7.27668
           24880         70.4128         66.9517        -4.45178        -7.24709
           24881         71.1591         67.5175        -4.67943        -7.46467
           24882         70.6339         67.0671        -4.54239        -7.43587
           24883         71.3924         67.6532        -4.75222        -7.65578
           24884         70.8555         67.1876        -4.62028        -7.62810
           24885         71.6255         67.7943        -4.81107        -7.84941
           24886         71.0772         67.3132        -4.68484        -7.82320
           24887         71.8581         67.9410        -4.85524        -8.04493
           24888         71.2986         67.4441        -4.73540        -8.02053
           24889         72.0893         68.0932        -4.88396        -8.24167
           24890         71.5191         67.5804        -4.77123        -8.21944
           24891         72.3187         68.2510        -4.89639        -8.43897
           24892         71.7381         67.7219        -4.79154        -8.41925
           24893         72.5455         68.4143        -4.89159        -8.63609
           24894         71.9549         67.8689        -4.79544        -8.61926
           24895         72.7688         68.5833        -4.86860        -8.83229
           24896         72.1687         68.0211        -4.78201        -8.81870
           24897         72.9878         68.7578        -4.82634        -9.02678
           24898         72.3787         68.1787        -4.75024        -9.01681
           24899         73.2014         68.9377        -4.76368        -9.21873
           24900         72.5839         68.3416        -4.69905        -9.21276
           24901         73.4087         69.1230        -4.67942        -9.40729
           24902         72.7833         68.5097        -4.62729        -9.40571
           24903         73.6084         69.3136        -4.57227        -9.59155
           24904         72.9758         68.6830        -4.53374        -9.59476
           24905         73.7993         69.5093        -4.44087        -9.77057
           24906         73.1602         68.8612        -4.41709        -9.77896
           24907         73.9802         69.7100        -4.28378        -9.94334
           24908         73.3353         69.0442        -4.27597        -9.95734
           24909         74.1496         69.9155        -4.09950        -10.1088
           24910         73.4996         69.2319        -4.10892        -10.1289
           24911         74.3061         70.1255        -3.88641        -10.2660
           24912         73.6518         69.4241        -3.91443        -10.2924
           24913         74.4481         70.3398        -3.64286        -10.4135
           24914         73.7904         69.6206        -3.69088        -10.4469
           24915         74.5741         70.5581        -3.36709        -10.5504
           24916         73.9137         69.8210        -3.43659        -10.5912
           24917         74.6823         70.7801        -3.05726        -10.6752
           24918         74.0203         70.0251        -3.14980        -10.7238
           24919         74.7711         71.0054        -2.71148        -10.7867
           24920         74.1083         70.2326        -2.82868        -10.8437
           24921         74.8387         71.2338        -2.32775        -10.8834
           24922         74.1760         70.4431        -2.47132        -10.9492
           24923         74.8833         71.4646        -1.90401        -10.9638
           24924         74.2217         70.6563        -2.07573        -11.0391
           24925         74.9031         71.6976        -1.43812        -11.0263
           24926         74.2436         70.8717        -1.63986        -11.1116
           24927         74.8962         71.9323    -927.869E-03        -11.0693
           24928         74.2397         71.0889        -1.16158        -11.1651
           24929         74.8610         72.1681    -370.967E-03        -11.0909
           24930         74.2084         71.3075    -638.694E-03        -11.1980
           24931         74.7955         72.4045     234.952E-03        -11.0892
           24932         74.1478         71.5269    -68.9318E-03        -11.2083
           24933         74.6981         72.6409     892.317E-03        -11.0622
           24934         74.0562         71.7466     550.038E-03        -11.1939
           24935         74.5670         72.8768         1.60364        -11.0076
           24936         73.9319         71.9661         1.22061        -11.1529
           24937         74.4008         73.1115         2.37150        -10.9232
           24938         73.7732         72.1847         1.94525        -11.0828
           24939         74.1982         73.3444         3.19857        -10.8064
           24940         73.5788         72.4020         2.72649        -10.9813
           24941         73.9577         73.5747         4.08759        -10.6544
           24942         73.3474         72.6172         3.56694        -10.8455
           24943         73.6786         73.8017         5.04141        -10.4642
           24944         73.0778         72.8297         4.46928        -10.6728
           24945         73.3603         74.0247         6.06295        -10.2327
           24946         72.7693         73.0387         5.43626        -10.4600
           24947         73.0023         74.2427         7.15527        -9.95640
           24948         72.4216         73.2435         6.47075        -10.2036
           24949         72.6050         74.4549         8.32154        -9.63142
           24950         72.0345         73.4434         7.57571        -9.90002
           24951         72.1693         74.6603         9.56512        -9.25366
           24952         71.6087         73.6375         8.75422        -9.54524
           24953         71.6967         74.8578         10.8895        -8.81862
           24954         71.1454         73.8247         10.0096        -9.13490
           24955         71.1897         75.0462         12.2985        -8.32141
           24956         70.6466         74.0041         11.3451        -8.66423
           24957         70.6521         75.2243         13.7960        -7.75671
           24958         70.1156         74.1746         12.7646        -8.12805
           24959         70.0892         75.3903         15.3863        -7.11875
           24960         69.5567         74.3347         14.2719        -7.52074
           24961         69.5078         75.5428         17.0742        -6.40125
           24962         68.9761         74.4831         15.8712        -6.83617
           24963         68.9174         75.6796         18.8646        -5.59748
           24964         68.3819         74.6180         17.5671        -6.06771
           24965         68.3300         75.7985         20.7631        -4.70015
           24966         67.7848         74.7374         19.3648        -5.20820
           24967         67.7612         75.8970         22.7759        -3.70147
           24968         67.1987         74.8391         21.2697        -4.24993
           24969         67.2307         75.9720         24.9096        -2.59311
           24970         66.6414         74.9203         23.2881        -3.18466
           24971         66.7634         76.0200         27.1716        -1.36624
           24972         66.1349         74.9781         25.4266        -2.00355
           24973         66.3897         76.0371         29.5706    -11.0144E-03
           24974         65.7074         75.0088         27.6930    -697.332E-03
           24975         54.7615         59.9276         17.2169        -6.90027
           24976         54.6082         59.7876         17.5553        -7.04513
           24977         54.3354         59.6360         17.8921        -6.89853
           24978         55.2009         60.2211         16.5278        -6.89725
           24979         55.0422         60.0809         16.8707        -7.04543
           24980         55.6516         60.5151         15.8272        -6.88739
           24981         55.4885         60.3755         16.1725        -7.03923
           24982         56.1110         60.8081         15.1175        -6.86906
           24983         55.9448         60.6698         15.4632        -7.02464
           24984         56.5766         61.0985         14.4016        -6.84104
           24985         56.4084         60.9622         14.7455        -7.00017
           24986         57.0457         61.3846         13.6823        -6.80253
           24987         56.8764         61.2509         14.0227        -6.96478
           24988         57.5157         61.6648         12.9628        -6.75314
           24989         57.3462         61.5342         13.2979        -6.91788
           24990         57.9838         61.9376         12.2461        -6.69290
           24991         57.8148         61.8103         12.5744        -6.85933
           24992         58.4476         62.2013         11.5351        -6.62222
           24993         58.2796         62.0776         11.8553        -6.78941
           24994         58.9050         62.4549         10.8326        -6.54183
           24995         58.7383         62.3348         11.1437        -6.70878
           24996         59.3538         62.6972         10.1411        -6.45278
           24997         59.1885         62.5805         10.4424        -6.61843
           24998         59.7923         62.9273         9.46283        -6.35630
           24999         59.6284         62.8137         9.75383        -6.51960
           25000         60.2192         63.1446         8.79979        -6.25382
           25001         60.0563         63.0338         9.08019        -6.41376
           25002         60.6332         63.3488         8.15357        -6.14685
           25003         60.4711         63.2403         8.42332        -6.30248
           25004         61.0336         63.5397         7.52548        -6.03699
           25005         60.8717         63.4328         7.78471        -6.18743
           25006         61.4197         63.7174         6.91651        -5.92583
           25007         61.2576         63.6114         7.16552        -6.07030
           25008         61.7914         63.8820         6.32737        -5.81491
           25009         61.6283         63.7763         6.56659        -5.95275
           25010         62.1485         64.0340         5.75849        -5.70575
           25011         61.9837         63.9278         5.98844        -5.83640
           25012         62.4912         64.1739         5.21007        -5.59974
           25013         62.3240         64.0664         5.43136        -5.72277
           25014         62.8198         64.3023         4.68211        -5.49819
           25015         62.6495         64.1928         4.89539        -5.61325
           25016         63.1347         64.4200         4.17444        -5.40228
           25017         62.9605         64.3077         4.38039        -5.50914
           25018         63.4365         64.5276         3.68672        -5.31307
           25019         63.2577         64.4119         3.88603        -5.41158
           25020         63.7259         64.6261         3.21852        -5.23150
           25021         63.5418         64.5062         3.41188        -5.32159
           25022         64.0036         64.7162         2.76932        -5.15837
           25023         63.8135         64.5915         2.95740        -5.24006
           25024         64.2703         64.7987         2.33850        -5.09437
           25025         64.0736         64.6687         2.52195        -5.16774
           25026         64.5269         64.8746         1.92545        -5.04008
           25027         64.3230         64.7386         2.10486        -5.10525
           25028         64.7742         64.9447         1.52947        -4.99596
           25029         64.5625         64.8022         1.70542        -5.05311
           25030         65.0131         65.0096         1.14989        -4.96238
           25031         64.7930         64.8601         1.32291        -5.01171
           25032         65.2443         65.0703     786.032E-03        -4.93961
           25033         65.0154         64.9133     956.589E-03        -4.98138
           25034         65.4686         65.1273     437.220E-03        -4.92784
           25035         65.2304         64.9625     605.752E-03        -4.96232
           25036         65.6869         65.1815     102.806E-03        -4.92720
           25037         65.4391         65.0083     269.696E-03        -4.95466
           25038         65.9000         65.2335    -217.833E-03        -4.93773
           25039         65.6420         65.0516    -52.2466E-03        -4.95849
           25040         66.1085         65.2838    -525.287E-03        -4.95941
           25041         65.8400         65.0929    -360.713E-03        -4.97379
           25042         66.3132         65.3331    -820.105E-03        -4.99220
           25043         66.0339         65.1328    -656.301E-03        -5.00051
           25044         66.5147         65.3820        -1.10280        -5.03598
           25045         66.2243         65.1719    -939.562E-03        -5.03855
           25046         66.7137         65.4308        -1.37383        -5.09060
           25047         66.4118         65.2107        -1.21101        -5.08776
           25048         66.9107         65.4802        -1.63361        -5.15587
           25049         66.5972         65.2498        -1.47109        -5.14795
           25050         67.1063         65.5305        -1.88252        -5.23156
           25051         66.7809         65.2894        -1.72022        -5.21889
           25052         67.3010         65.5821        -2.12088        -5.31742
           25053         66.9635         65.3301        -1.95877        -5.30035
           25054         67.4953         65.6355        -2.34894        -5.41319
           25055         67.1455         65.3723        -2.18703        -5.39203
           25056         67.6896         65.6909        -2.56694        -5.51853
           25057         67.3273         65.4163        -2.40527        -5.49362
           25058         67.8842         65.7488        -2.77504        -5.63315
           25059         67.5093         65.4624        -2.61369        -5.60481
           25060         68.0795         65.8094        -2.97334        -5.75667
           25061         67.6918         65.5110        -2.81243        -5.72524
           25062         68.2757         65.8730        -3.16192        -5.88875
           25063         67.8752         65.5623        -3.00159        -5.85455
           25064         68.4731         65.9399        -3.34077        -6.02898
           25065         68.0597         65.6166        -3.18123        -5.99233
           25066         68.6719         66.0103        -3.50985        -6.17697
           25067         68.2455         65.6741        -3.35132        -6.13820
           25068         68.8722         66.0844        -3.66907        -6.33229
           25069         68.4327         65.7351        -3.51181        -6.29172
           25070         69.0740         66.1625        -3.81827        -6.49449
           25071         68.6215         65.7997        -3.66257        -6.45245
           25072         69.2773         66.2447        -3.95722        -6.66312
           25073         68.8119         65.8682        -3.80343        -6.61993
           25074         69.4822         66.3311        -4.08568        -6.83768
           25075         69.0039         65.9407        -3.93417        -6.79367
           25076         69.6886         66.4221        -4.20332        -7.01769
           25077         69.1973         66.0173        -4.05450        -6.97319
           25078         69.8962         66.5176        -4.30975        -7.20261
           25079         69.3922         66.0983        -4.16408        -7.15795
           25080         70.1048         66.6178        -4.40453        -7.39190
           25081         69.5882         66.1837        -4.26250        -7.34741
           25082         70.3141         66.7229        -4.48717        -7.58499
           25083         69.7851         66.2737        -4.34931        -7.54101
           25084         70.5239         66.8329        -4.55710        -7.78129
           25085         69.9827         66.3683        -4.42399        -7.73817
           25086         70.7336         66.9479        -4.61370        -7.98017
           25087         70.1804         66.4676        -4.48597        -7.93826
           25088         70.9427         67.0679        -4.65629        -8.18100
           25089         70.3779         66.5717        -4.53459        -8.14064
           25090         71.1507         67.1931        -4.68411        -8.38309
           25091         70.5745         66.6807        -4.56916        -8.34465
           25092         71.3569         67.3233        -4.69634        -8.58575
           25093         70.7698         66.7945        -4.58890        -8.54958
           25094         71.5606         67.4587        -4.69210        -8.78822
           25095         70.9630         66.9132        -4.59299        -8.75471
           25096         71.7609         67.5992        -4.67043        -8.98975
           25097         71.1532         67.0368        -4.58051        -8.95926
           25098         71.9570         67.7448        -4.63032        -9.18951
           25099         71.3398         67.1652        -4.55051        -9.16245
           25100         72.1479         67.8954        -4.57066        -9.38667
           25101         71.5217         67.2985        -4.50192        -9.36342
           25102         72.3326         68.0509        -4.49029        -9.58035
           25103         71.6979         67.4365        -4.43366        -9.56131
           25104         72.5098         68.2112        -4.38797        -9.76960
           25105         71.8673         67.5791        -4.34453        -9.75519
           25106         72.6784         68.3763        -4.26239        -9.95346
           25107         72.0288         67.7264        -4.23327        -9.94410
           25108         72.8370         68.5459        -4.11215        -10.1309
           25109         72.1810         67.8780        -4.09857        -10.1270
           25110         72.9843         68.7199        -3.93579        -10.3009
           25111         72.3226         68.0339        -3.93902        -10.3029
           25112         73.1188         68.8981        -3.73178        -10.4622
           25113         72.4523         68.1939        -3.75314        -10.4707
           25114         73.2390         69.0802        -3.49849        -10.6138
           25115         72.5685         68.3577        -3.53938        -10.6291
           25116         73.3432         69.2660        -3.23423        -10.7544
           25117         72.6695         68.5252        -3.29613        -10.7770
           25118         73.4298         69.4551        -2.93725        -10.8826
           25119         72.7539         68.6960        -3.02168        -10.9131
           25120         73.4972         69.6474        -2.60571        -10.9971
           25121         72.8199         68.8699        -2.71428        -11.0360
           25122         73.5434         69.8423        -2.23770        -11.0964
           25123         72.8658         69.0466        -2.37209        -11.1442
           25124         73.5668         70.0396        -1.83124        -11.1791
           25125         72.8897         69.2257        -1.99320        -11.2364
           25126         73.5655         70.2388        -1.38428        -11.2434
           25127         72.8900         69.4068        -1.57566        -11.3109
           25128         73.5377         70.4396    -894.722E-03        -11.2877
           25129         72.8647         69.5895        -1.11742        -11.3659
           25130         73.4816         70.6413    -360.380E-03        -11.3101
           25131         72.8120         69.7734    -616.406E-03        -11.3998
           25132         73.3954         70.8437     220.984E-03        -11.3088
           25133         72.7302         69.9582    -70.4633E-03        -11.4107
           25134         73.2774         71.0461     851.659E-03        -11.2815
           25135         72.6176         70.1432     522.609E-03        -11.3964
           25136         73.1260         71.2480         1.53400        -11.2262
           25137         72.4724         70.3280         1.16506        -11.3548
           25138         72.9397         71.4488         2.27043        -11.1404
           25139         72.2930         70.5121         1.85918        -11.2837
           25140         72.7170         71.6481         3.06340        -11.0215
           25141         72.0782         70.6949         2.60734        -11.1806
           25142         72.4569         71.8451         3.91546        -10.8667
           25143         71.8265         70.8760         3.41193        -11.0426
           25144         72.1584         72.0393         4.82921        -10.6732
           25145         71.5370         71.0547         4.27540        -10.8671
           25146         71.8210         72.2299         5.80730        -10.4375
           25147         71.2090         71.2306         5.20025        -10.6507
           25148         71.4444         72.4164         6.85250        -10.1562
           25149         70.8421         71.4028         6.18906        -10.3901
           25150         71.0289         72.5979         7.96767        -9.82538
           25151         70.4364         71.5708         7.24447        -10.0815
           25152         70.5755         72.7735         9.15578        -9.44086
           25153         69.9924         71.7339         8.36922        -9.72098
           25154         70.0859         72.9426         10.4200        -8.99802
           25155         69.5115         71.8914         9.56619        -9.30396
           25156         69.5625         73.1040         11.7635        -8.49187
           25157         68.9959         72.0424         10.8384        -8.82564
           25158         69.0093         73.2566         13.1900        -7.91692
           25159         68.4487         72.1860         12.1890        -8.28071
           25160         68.4315         73.3993         14.7032        -7.26722
           25161         67.8746         72.3212         13.6214        -7.66337
           25162         67.8361         73.5305         16.3073        -6.53629
           25163         67.2796         72.4466         15.1394        -6.96732
           25164         67.2327         73.6485         18.0068        -5.71712
           25165         66.6720         72.5609         16.7471        -6.18568
           25166         66.6332         73.7514         19.8068        -4.80212
           25167         66.0627         72.6625         18.4488        -5.31101
           25168         66.0536         73.8369         21.7126        -3.78312
           25169         65.4655         72.7492         20.2497        -4.33527
           25170         65.5136         73.9023         23.7306        -2.65138
           25171         64.8984         72.8189         22.1552        -3.24982
           25172         65.0385         73.9444         25.8677        -1.39761
           25173         64.3840         72.8686         24.1717        -2.04538
           25174         64.6590         73.9594         28.1317    -11.3746E-03
           25175         63.9504         72.8952         26.3061    -712.188E-03
           25176         54.8911         59.9454         17.2176        -7.19388
           25177         54.7438         59.8099         17.5595        -7.33822
           25178         54.4625         59.6522         17.8972        -7.18956
           25179         55.3336         60.2408         16.5219        -7.19215
           25180         55.1810         60.1052         16.8688        -7.34061
           25181         55.7873         60.5367         15.8128        -7.18205
           25182         55.6308         60.4019         16.1623        -7.33499
           25183         56.2495         60.8315         15.0932        -7.16181
           25184         56.0904         60.6984         15.4428        -7.31924
           25185         56.7173         61.1233         14.3662        -7.13011
           25186         56.5567         60.9926         14.7138        -7.29177
           25187         57.1876         61.4101         13.6353        -7.08612
           25188         57.0267         61.2825         13.9788        -7.25147
           25189         57.6575         61.6902         12.9040        -7.02952
           25190         57.4972         61.5662         13.2414        -7.19778
           25191         58.1241         61.9617         12.1759        -6.96045
           25192         57.9651         61.8416         12.5055        -7.13066
           25193         58.5847         62.2229         11.4541        -6.87950
           25194         58.4274         62.1069         11.7746        -7.05056
           25195         59.0369         62.4725         10.7418        -6.78761
           25196         58.8816         62.3607         11.0521        -6.95834
           25197         59.4786         62.7094         10.0418        -6.68605
           25198         59.3253         62.6014         10.3411        -6.85525
           25199         59.9080         62.9325         9.35647        -6.57634
           25200         59.7566         62.8282         9.64438        -6.74280
           25201         60.3237         63.1414         8.68799        -6.46013
           25202         60.1739         63.0402         8.96426        -6.62272
           25203         60.7247         63.3357         8.03801        -6.33920
           25204         60.5759         63.2369         8.30267        -6.49686
           25205         61.1102         63.5153         7.40786        -6.21537
           25206         60.9618         63.4183         7.66114        -6.36715
           25207         61.4798         63.6804         6.79851        -6.09042
           25208         61.3311         63.5843         7.04083        -6.23550
           25209         61.8333         63.8313         6.21059        -5.96610
           25210         61.6835         63.7354         6.44250        -6.10377
           25211         62.1708         63.9684         5.64446        -5.84405
           25212         62.0193         63.8719         5.86660        -5.97375
           25213         62.4927         64.0926         5.10020        -5.72580
           25214         62.3385         63.9946         5.31329        -5.84708
           25215         62.7994         64.2044         4.57769        -5.61273
           25216         62.6417         64.1042         4.78249        -5.72528
           25217         63.0915         64.3048         4.07661        -5.50612
           25218         62.9295         64.2016         4.27391        -5.60971
           25219         63.3697         64.3946         3.59651        -5.40705
           25220         63.2026         64.2876         3.78708        -5.50158
           25221         63.6348         64.4748         3.13680        -5.31648
           25222         63.4620         64.3632         3.32142        -5.40193
           25223         63.8877         64.5462         2.69684        -5.23524
           25224         63.7084         64.4295         2.87624        -5.31165
           25225         64.1293         64.6098         2.27589        -5.16400
           25226         63.9428         64.4873         2.45077        -5.23149
           25227         64.3604         64.6665         1.87320        -5.10332
           25228         64.1662         64.5376         2.04423        -5.16206
           25229         64.5820         64.7171         1.48800        -5.05364
           25230         64.3794         64.5814         1.65578        -5.10385
           25231         64.7949         64.7624         1.11950        -5.01530
           25232         64.5835         64.6194         1.28459        -5.05722
           25233         65.0002         64.8034     766.930E-03        -4.98853
           25234         64.7794         64.6525     929.838E-03        -5.02244
           25235         65.1985         64.8406     429.542E-03        -4.97349
           25236         64.9679         64.6815     590.719E-03        -4.99969
           25237         65.3908         64.8749     106.616E-03        -4.97024
           25238         65.1500         64.7072     266.461E-03        -4.98906
           25239         65.5779         64.9069    -202.537E-03        -4.97881
           25240         65.3265         64.7302    -43.6752E-03        -4.99057
           25241         65.7605         64.9372    -498.561E-03        -4.99915
           25242         65.4981         64.7512    -340.384E-03        -5.00417
           25243         65.9392         64.9664    -782.057E-03        -5.03114
           25244         65.6656         64.7707    -624.316E-03        -5.02977
           25245         66.1150         64.9950        -1.05358        -5.07464
           25246         65.8297         64.7894    -896.069E-03        -5.06722
           25247         66.2882         65.0235        -1.31362        -5.12946
           25248         65.9911         64.8077        -1.15619        -5.11634
           25249         66.4596         65.0523        -1.56265        -5.19538
           25250         66.1505         64.8260        -1.40518        -5.17690
           25251         66.6297         65.0820        -1.80105        -5.27215
           25252         66.3082         64.8449        -1.64347        -5.24863
           25253         66.7989         65.1129        -2.02918        -5.35947
           25254         66.4650         64.8647        -1.87146        -5.33126
           25255         66.9678         65.1452        -2.24733        -5.45704
           25256         66.6212         64.8858        -2.08947        -5.42448
           25257         67.1368         65.1795        -2.45574        -5.56453
           25258         66.7773         64.9084        -2.29779        -5.52794
           25259         67.3062         65.2159        -2.65459        -5.68159
           25260         66.9337         64.9330        -2.49664        -5.64131
           25261         67.4764         65.2548        -2.84402        -5.80785
           25262         67.0907         64.9598        -2.68618        -5.76419
           25263         67.6475         65.2964        -3.02411        -5.94291
           25264         67.2486         64.9890        -2.86654        -5.89621
           25265         67.8199         65.3410        -3.19489        -6.08638
           25266         67.4076         65.0208        -3.03777        -6.03695
           25267         67.9937         65.3887        -3.35632        -6.23782
           25268         67.5681         65.0556        -3.19989        -6.18599
           25269         68.1691         65.4398        -3.50833        -6.39679
           25270         67.7300         65.0935        -3.35284        -6.34289
           25271         68.3460         65.4945        -3.65077        -6.56284
           25272         67.8935         65.1347        -3.49653        -6.50718
           25273         68.5246         65.5529        -3.78346        -6.73548
           25274         68.0586         65.1793        -3.63080        -6.67839
           25275         68.7047         65.6152        -3.90616        -6.91422
           25276         68.2254         65.2275        -3.75544        -6.85602
           25277         68.8863         65.6815        -4.01854        -7.09853
           25278         68.3937         65.2794        -3.87019        -7.03956
           25279         69.0692         65.7520        -4.12027        -7.28789
           25280         68.5633         65.3352        -3.97473        -7.22847
           25281         69.2532         65.8267        -4.21091        -7.48172
           25282         68.7343         65.3950        -4.06867        -7.42220
           25283         69.4380         65.9058        -4.28999        -7.67946
           25284         68.9061         65.4589        -4.15159        -7.62016
           25285         69.6233         65.9893        -4.35699        -7.88048
           25286         69.0787         65.5269        -4.22298        -7.82176
           25287         69.8085         66.0774        -4.41129        -8.08415
           25288         69.2514         65.5991        -4.28231        -8.02636
           25289         69.9933         66.1700        -4.45225        -8.28981
           25290         69.4240         65.6756        -4.32894        -8.23331
           25291         70.1770         66.2672        -4.47913        -8.49677
           25292         69.5959         65.7565        -4.36222        -8.44193
           25293         70.3590         66.3690        -4.49117        -8.70430
           25294         69.7664         65.8417        -4.38139        -8.65149
           25295         70.5386         66.4755        -4.48749        -8.91166
           25296         69.9349         65.9313        -4.38566        -8.86125
           25297         70.7149         66.5865        -4.46719        -9.11803
           25298         70.1006         66.0252        -4.37416        -9.07042
           25299         70.8871         66.7022        -4.42928        -9.32261
           25300         70.2626         66.1236        -4.34596        -9.27819
           25301         71.0542         66.8224        -4.37270        -9.52452
           25302         70.4201         66.2262        -4.30005        -9.48371
           25303         71.2152         66.9471        -4.29633        -9.72285
           25304         70.5721         66.3331        -4.23537        -9.68606
           25305         71.3689         67.0762        -4.19897        -9.91666
           25306         70.7174         66.4441        -4.15077        -9.88432
           25307         71.5140         67.2095        -4.07935        -10.1049
           25308         70.8548         66.5593        -4.04504        -10.0775
           25309         71.6494         67.3469        -3.93614        -10.2867
           25310         70.9832         66.6784        -3.91691        -10.2646
           25311         71.7736         67.4883        -3.76792        -10.4607
           25312         71.1011         66.8014        -3.76503        -10.4444
           25313         71.8851         67.6335        -3.57320        -10.6259
           25314         71.2072         66.9280        -3.58798        -10.6159
           25315         71.9824         67.7823        -3.35043        -10.7811
           25316         71.2999         67.0581        -3.38425        -10.7779
           25317         72.0639         67.9344        -3.09799        -10.9250
           25318         71.3777         67.1915        -3.15230        -10.9292
           25319         72.1279         68.0895        -2.81418        -11.0563
           25320         71.4389         67.3278        -2.89048        -11.0683
           25321         72.1728         68.2474        -2.49723        -11.1736
           25322         71.4819         67.4670        -2.59712        -11.1939
           25323         72.1968         68.4078        -2.14531        -11.2753
           25324         71.5050         67.6086        -2.27044        -11.3047
           25325         72.1980         68.5702        -1.75653        -11.3600
           25326         71.5062         67.7523        -1.90864        -11.3989
           25327         72.1747         68.7344        -1.32894        -11.4260
           25328         71.4839         67.8979        -1.50981        -11.4751
           25329         72.1251         68.9000    -860.530E-03        -11.4715
           25330         71.4362         68.0449        -1.07205        -11.5316
           25331         72.0472         69.0665    -349.232E-03        -11.4947
           25332         71.3613         68.1930    -593.354E-03        -11.5664
           25333         71.9395         69.2334     207.068E-03        -11.4937
           25334         71.2575         68.3418    -71.7004E-03        -11.5777
           25335         71.8001         69.4005     810.521E-03        -11.4662
           25336         71.1229         68.4908     494.983E-03        -11.5635
           25337         71.6275         69.5671         1.46333        -11.4102
           25338         70.9560         68.6396         1.10880        -11.5215
           25339         71.4202         69.7328         2.16774        -11.3231
           25340         70.7552         68.7879         1.77188        -11.4495
           25341         71.1768         69.8972         2.92601        -11.2024
           25342         70.5191         68.9350         2.48641        -11.3449
           25343         70.8962         70.0596         3.74048        -11.0453
           25344         70.2465         69.0807         3.25457        -11.2051
           25345         70.5777         70.2196         4.61349        -10.8488
           25346         69.9364         69.2244         4.07858        -11.0271
           25347         70.2205         70.3766         5.54744        -10.6096
           25348         69.5882         69.3656         4.96068        -10.8078
           25349         69.8247         70.5301         6.54477        -10.3241
           25350         69.2015         69.5039         5.90316        -10.5436
           25351         69.3905         70.6794         7.60802        -9.98841
           25352         68.7765         69.6387         6.90833        -10.2310
           25353         68.9190         70.8241         8.73978        -9.59825
           25354         68.3138         69.7695         7.97858        -9.86566
           25355         68.4119         70.9633         9.94276        -9.14895
           25356         67.8150         69.8959         9.11636        -9.44322
           25357         67.8719         71.0963         11.2198        -8.63542
           25358         67.2822         70.0171         10.3242        -8.95871
           25359         67.3029         71.2223         12.5741        -8.05204
           25360         66.7187         70.1326         11.6049        -8.40672
           25361         66.7102         71.3403         14.0087        -7.39270
           25362         66.1292         70.2414         12.9614        -7.78134
           25363         66.1010         71.4490         15.5274        -6.65072
           25364         65.5200         70.3427         14.3967        -7.07608
           25365         65.4849         71.5472         17.1340        -5.81882
           25366         64.8994         70.4353         15.9143        -6.28384
           25367         64.8741         71.6332         18.8330        -4.88912
           25368         64.2783         70.5180         17.5182        -5.39691
           25369         64.2844         71.7050         20.6293        -3.85309
           25370         63.6709         70.5890         19.2126        -4.40691
           25371         63.7362         71.7602         22.5285        -2.70157
           25372         63.0953         70.6463         21.0026        -3.30482
           25373         63.2547         71.7959         24.5368        -1.42477
           25374         62.5742         70.6875         22.8937        -2.08090
           25375         62.8713         71.8088         26.6618    -11.7120E-03
           25376         62.1364         70.7097         24.8922    -724.858E-03
           25377         55.0365         59.9749         17.2205        -7.48951
           25378         54.8954         59.8446         17.5667        -7.63337
           25379         54.6042         59.6797         17.9056        -7.48219
           25380         55.4830         60.2727         16.5167        -7.48927
           25381         55.3369         60.1424         16.8684        -7.63818
           25382         55.9407         60.5712         15.7973        -7.47890
           25383         55.7912         60.4419         16.1518        -7.63320
           25384         56.4065         60.8682         15.0658        -7.45643
           25385         56.2550         60.7410         15.4203        -7.61611
           25386         56.8770         61.1618         14.3258        -7.42045
           25387         56.7250         61.0375         14.6778        -7.58514
           25388         57.3490         61.4497         13.5815        -7.37014
           25389         57.1974         61.3290         13.9285        -7.53915
           25390         57.8190         61.7297         12.8366        -7.30524
           25391         57.6689         61.6133         13.1767        -7.47762
           25392         58.2839         61.9999         12.0954        -7.22605
           25393         58.1360         61.8880         12.4265        -7.40065
           25394         58.7409         62.2583         11.3614        -7.13338
           25395         58.5956         62.1512         11.6822        -7.30889
           25396         59.1872         62.5035         10.6381        -7.02843
           25397         59.0447         62.4011         10.9474        -7.20348
           25398         59.6209         62.7342         9.92873        -6.91278
           25399         59.4810         62.6362         10.2258        -7.08598
           25400         60.0400         62.9496         9.23580        -6.78821
           25401         59.9025         62.8556         9.52013        -6.95821
           25402         60.4432         63.1490         8.56154        -6.65672
           25403         60.3077         63.0584         8.83307        -6.82223
           25404         60.8295         63.3322         7.90773        -6.52034
           25405         60.6953         63.2443         8.16659        -6.68020
           25406         61.1984         63.4993         7.27567        -6.38114
           25407         61.0647         63.4132         7.52224        -6.53434
           25408         61.5496         63.6504         6.66628        -6.24115
           25409         61.4156         63.5653         6.90111        -6.38680
           25410         61.8831         63.7861         6.08011        -6.10229
           25411         61.7479         63.7011         6.30388        -6.23967
           25412         62.1992         63.9071         5.51738        -5.96636
           25413         62.0619         63.8212         5.73088        -6.09490
           25414         62.4985         64.0141         4.97805        -5.83500
           25415         62.3581         63.9265         5.18213        -5.95428
           25416         62.7814         64.1080         4.46182        -5.70970
           25417         62.6372         64.0179         4.65736        -5.81942
           25418         63.0489         64.1898         3.96822        -5.59177
           25419         62.8999         64.0963         4.15612        -5.69175
           25420         63.3018         64.2606         3.49664        -5.48234
           25421         63.1473         64.1628         3.67777        -5.57252
           25422         63.5411         64.3213         3.04635        -5.38238
           25423         63.3802         64.2186         3.22156        -5.46279
           25424         63.7677         64.3729         2.61654        -5.29272
           25425         63.5997         64.2646         2.78664        -5.36344
           25426         63.9826         64.4164         2.20635        -5.21399
           25427         63.8069         64.3020         2.37211        -5.27521
           25428         64.1869         64.4529         1.81491        -5.14675
           25429         64.0029         64.3317         1.97703        -5.19867
           25430         64.3815         64.4832         1.44131        -5.09138
           25431         64.1886         64.3547         1.60044        -5.13427
           25432         64.5675         64.5081         1.08468        -5.04817
           25433         64.3651         64.3719         1.24140        -5.08232
           25434         64.7456         64.5286     744.157E-03        -5.01733
           25435         64.5334         64.3842     899.002E-03        -5.04305
           25436         64.9169         64.5454     418.901E-03        -4.99894
           25437         64.6944         64.3924     572.338E-03        -5.01657
           25438         65.0823         64.5591     108.124E-03        -4.99305
           25439         64.8490         64.3973     260.564E-03        -5.00292
           25440         65.2425         64.5705    -188.924E-03        -4.99961
           25441         64.9980         64.3995    -37.1248E-03        -5.00208
           25442         65.3982         64.5802    -472.944E-03        -5.01852
           25443         65.1424         64.3996    -321.483E-03        -5.01395
           25444         65.5504         64.5888    -744.583E-03        -5.04963
           25445         65.2828         64.3983    -593.211E-03        -5.03838
           25446         65.6995         64.5966        -1.00444        -5.09277
           25447         65.4200         64.3960    -852.950E-03        -5.07517
           25448         65.8463         64.6043        -1.25304        -5.14769
           25449         65.5545         64.3933        -1.10129        -5.12411
           25450         65.9914         64.6123        -1.49089        -5.21413
           25451         65.6871         64.3906        -1.33875        -5.18492
           25452         66.1352         64.6209        -1.71840        -5.29181
           25453         65.8183         64.3883        -1.56581        -5.25731
           25454         66.2784         64.6305        -1.93594        -5.38041
           25455         65.9485         64.3867        -1.78287        -5.34095
           25456         66.4212         64.6415        -2.14384        -5.47959
           25457         66.0783         64.3863        -1.99031        -5.43551
           25458         66.5643         64.6542        -2.34235        -5.58899
           25459         66.2081         64.3873        -2.18840        -5.54063
           25460         66.7078         64.6687        -2.53168        -5.70824
           25461         66.3382         64.3899        -2.37740        -5.65592
           25462         66.8521         64.6855        -2.71199        -5.83694
           25463         66.4690         64.3944        -2.55749        -5.78099
           25464         66.9975         64.7046        -2.88336        -5.97469
           25465         66.6008         64.4011        -2.72880        -5.91542
           25466         67.1441         64.7264        -3.04583        -6.12105
           25467         66.7338         64.4102        -2.89142        -6.05879
           25468         67.2922         64.7510        -3.19941        -6.27559
           25469         66.8681         64.4218        -3.04536        -6.21065
           25470         67.4419         64.7786        -3.34403        -6.43784
           25471         67.0040         64.4361        -3.19059        -6.37054
           25472         67.5932         64.8094        -3.47955        -6.60734
           25473         67.1415         64.4533        -3.32704        -6.53800
           25474         67.7461         64.8435        -3.60582        -6.78357
           25475         67.2806         64.4736        -3.45457        -6.71252
           25476         67.9007         64.8810        -3.72260        -6.96604
           25477         67.4213         64.4969        -3.57298        -6.89359
           25478         68.0567         64.9220        -3.82962        -7.15422
           25479         67.5636         64.5236        -3.68202        -7.08070
           25480         68.2141         64.9668        -3.92652        -7.34755
           25481         67.7073         64.5536        -3.78141        -7.27329
           25482         68.3725         65.0153        -4.01293        -7.54545
           25483         67.8522         64.5871        -3.87077        -7.47079
           25484         68.5318         65.0677        -4.08838        -7.74734
           25485         67.9981         64.6242        -3.94971        -7.67262
           25486         68.6916         65.1241        -4.15236        -7.95258
           25487         68.1447         64.6649        -4.01775        -7.87815
           25488         68.8514         65.1844        -4.20431        -8.16054
           25489         68.2915         64.7093        -4.07436        -8.08675
           25490         69.0108         65.2487        -4.24360        -8.37052
           25491         68.4382         64.7575        -4.11897        -8.29774
           25492         69.1692         65.3172        -4.26954        -8.58184
           25493         68.5842         64.8094        -4.15092        -8.51044
           25494         69.3260         65.3897        -4.28136        -8.79375
           25495         68.7289         64.8652        -4.16951        -8.72410
           25496         69.4804         65.4664        -4.27827        -9.00547
           25497         68.8717         64.9248        -4.17396        -8.93797
           25498         69.6317         65.5471        -4.25936        -9.21620
           25499         69.0117         64.9883        -4.16346        -9.15124
           25500         69.7789         65.6319        -4.22370        -9.42509
           25501         69.1482         65.0555        -4.13710        -9.36309
           25502         69.9212         65.7208        -4.17027        -9.63126
           25503         69.2803         65.1266        -4.09392        -9.57263
           25504         70.0574         65.8136        -4.09799        -9.83377
           25505         69.4069         65.2014        -4.03289        -9.77896
           25506         70.1865         65.9103        -4.00570        -10.0317
           25507         69.5269         65.2798        -3.95292        -9.98112
           25508         70.3071         66.0108        -3.89219        -10.2239
           25509         69.6393         65.3619        -3.85284        -10.1781
           25510         70.4181         66.1150        -3.75616        -10.4095
           25511         69.7427         65.4474        -3.73143        -10.3688
           25512         70.5181         66.2227        -3.59626        -10.5872
           25513         69.8358         65.5364        -3.58739        -10.5522
           25514         70.6055         66.3338        -3.41106        -10.7559
           25515         69.9172         65.6285        -3.41934        -10.7271
           25516         70.6790         66.4481        -3.19905        -10.9143
           25517         69.9854         65.7238        -3.22586        -10.8923
           25518         70.7367         66.5652        -2.95869        -11.0613
           25519         70.0389         65.8218        -3.00545        -11.0464
           25520         70.7772         66.6852        -2.68833        -11.1953
           25521         70.0759         65.9226        -2.75653        -11.1883
           25522         70.7987         66.8076        -2.38629        -11.3150
           25523         70.0949         66.0258        -2.47749        -11.3164
           25524         70.7994         66.9321        -2.05081        -11.4189
           25525         70.0941         66.1311        -2.16665        -11.4293
           25526         70.7775         67.0585        -1.68008        -11.5054
           25527         70.0717         66.2383        -1.82225        -11.5254
           25528         70.7313         67.1865        -1.27225        -11.5729
           25529         70.0259         66.3471        -1.44252        -11.6032
           25530         70.6588         67.3156    -825.401E-03        -11.6195
           25531         69.9549         66.4572        -1.02560        -11.6608
           25532         70.5584         67.4456    -337.581E-03        -11.6433
           25533         69.8569         66.5682    -569.626E-03        -11.6964
           25534         70.4283         67.5760     193.202E-03        -11.6425
           25535         69.7301         66.6798    -72.6781E-03        -11.7082
           25536         70.2667         67.7064     768.966E-03        -11.6149
           25537         69.5728         66.7916     467.187E-03        -11.6940
           25538         70.0721         67.8365         1.39176        -11.5583
           25539         69.3834         66.9032         1.05193        -11.6517
           25540         69.8430         67.9658         2.06365        -11.4701
           25541         69.1603         67.0144         1.68352        -11.5789
           25542         69.5781         68.0939         2.78672        -11.3479
           25543         68.9022         67.1246         2.36396        -11.4731
           25544         69.2763         68.2204         3.56307        -11.1889
           25545         68.6079         67.2335         3.09522        -11.3317
           25546         68.9369         68.3448         4.39481        -10.9899
           25547         68.2765         67.3408         3.87930        -11.1517
           25548         68.5594         68.4669         5.28405        -10.7477
           25549         67.9073         67.4461         4.71817        -10.9299
           25550         68.1437         68.5861         6.23293        -10.4588
           25551         67.5002         67.5491         5.61382        -10.6629
           25552         67.6903         68.7020         7.24363        -10.1191
           25553         67.0554         67.6494         6.56824        -10.3470
           25554         67.2002         68.8142         8.31836        -9.72448
           25555         66.5736         67.7467         7.58342        -9.97794
           25556         66.6753         68.9222         9.45940        -9.27008
           25557         66.0564         67.8405         8.66141        -9.55131
           25558         66.1184         69.0256         10.6691        -8.75075
           25559         65.5061         67.9306         9.80431        -9.06209
           25560         65.5335         69.1236         11.9501        -8.16080
           25561         64.9262         68.0166         11.0143        -8.50480
           25562         64.9260         69.2156         13.3050        -7.49397
           25563         64.3214         68.0978         12.2938        -7.87340
           25564         64.3033         69.3008         14.7369        -6.74339
           25565         63.6981         68.1737         13.6452        -7.16126
           25566         63.6750         69.3781         16.2490        -5.90156
           25567         63.0649         68.2435         15.0715        -6.36109
           25568         63.0536         69.4461         17.8451        -4.96029
           25569         62.4328         68.3062         16.5759        -5.46492
           25570         62.4550         69.5033         19.5295        -3.91070
           25571         61.8161         68.3605         18.1619        -4.46404
           25572         61.8999         69.5477         21.3070        -2.74319
           25573         61.2332         68.4048         19.8339        -3.34904
           25574         61.4138         69.5768         23.1833        -1.44749
           25575         60.7073         68.4369         21.5967        -2.10972
           25576         61.0286         69.5872         25.1652    -12.0257E-03
           25577         60.2673         68.4545         23.4560    -735.244E-03
           25578         55.1996         60.0181         17.2258        -7.78773
           25579         55.0650         59.8936         17.5773        -7.93118
           25580         54.7625         59.7202         17.9180        -7.77695
           25581         55.6511         60.3190         16.5121        -7.78921
           25582         55.5121         60.1946         16.8696        -7.93877
           25583         56.1138         60.6205         15.7805        -7.77849
           25584         55.9720         60.4975         16.1409        -7.93451
           25585         56.5841         60.9205         15.0349        -7.75340
           25586         56.4411         60.7999         15.3951        -7.91580
           25587         57.0582         61.2163         14.2798        -7.71244
           25588         56.9155         61.0993         14.6369        -7.88073
           25589         57.5322         61.5055         13.5197        -7.65478
           25590         57.3911         61.3927         13.8710        -7.82810
           25591         58.0025         61.7855         12.7593        -7.58029
           25592         57.8639         61.6777         13.1023        -7.75747
           25593         58.4656         62.0542         12.0031        -7.48947
           25594         58.3301         61.9517         12.3359        -7.66914
           25595         58.9183         62.3094         11.2554        -7.38341
           25596         58.7864         62.2124         11.5764        -7.56401
           25597         59.3580         62.5495         10.5200        -7.26364
           25598         59.2297         62.4579         10.8280        -7.44358
           25599         59.7824         62.7733         9.80030        -7.13208
           25600         59.6575         62.6866         10.0945        -7.30976
           25601         60.1897         62.9798         9.09915        -6.99089
           25602         60.0678         62.8975         9.37930        -7.16477
           25603         60.5788         63.1685         8.41886        -6.84239
           25604         60.4591         63.0899         8.68492        -7.01106
           25605         60.9487         63.3393         7.76124        -6.68895
           25606         60.8305         63.2635         8.01349        -6.85114
           25607         61.2990         63.4923         7.12755        -6.53292
           25608         61.1814         63.4184         7.36653        -6.68753
           25609         61.6298         63.6280         6.51862        -6.37656
           25610         61.5117         63.5550         6.74504        -6.52268
           25611         61.9412         63.7470         5.93486        -6.22201
           25612         61.8217         63.6739         6.14958        -6.35890
           25613         62.2338         63.8502         5.37634        -6.07120
           25614         62.1119         63.7760         5.58031        -6.19831
           25615         62.5084         63.9385         4.84283        -5.92592
           25616         62.3829         63.8623         5.03703        -6.04284
           25617         62.7657         64.0131         4.33385        -5.78770
           25618         62.6358         63.9338         4.51931        -5.89420
           25619         63.0067         64.0750         3.84874        -5.65791
           25620         62.8715         63.9918         4.02646        -5.75386
           25621         63.2326         64.1254         3.38671        -5.53770
           25622         63.0912         64.0375         3.55767        -5.62309
           25623         63.4443         64.1653         2.94685        -5.42805
           25624         63.2959         64.0721         3.11199        -5.50296
           25625         63.6431         64.1960         2.52819        -5.32972
           25626         63.4870         64.0967         2.68838        -5.39432
           25627         63.8299         64.2185         2.12973        -5.24337
           25628         63.6655         64.1125         2.28580        -5.29787
           25629         64.0061         64.2338         1.75045        -5.16945
           25630         63.8326         64.1206         1.90314        -5.21414
           25631         64.1725         64.2429         1.38933        -5.10833
           25632         63.9896         64.1220         1.53933        -5.14350
           25633         64.3303         64.2467         1.04539        -5.06024
           25634         64.1373         64.1177         1.19332        -5.08624
           25635         64.4804         64.2460     717.677E-03        -5.02530
           25636         64.2769         64.1084     864.067E-03        -5.04248
           25637         64.6237         64.2416     405.267E-03        -5.00358
           25638         64.4094         64.0952     550.605E-03        -5.01230
           25639         64.7612         64.2343     107.301E-03        -4.99503
           25640         64.5357         64.0786     252.004E-03        -4.99568
           25641         64.8937         64.2246    -177.032E-03        -4.99956
           25642         64.6566         64.0594    -32.6057E-03        -4.99251
           25643         65.0219         64.2132    -448.486E-03        -5.01703
           25644         64.7730         64.0383    -304.034E-03        -5.00264
           25645         65.1467         64.2007    -707.753E-03        -5.04723
           25646         64.8856         64.0157    -563.027E-03        -5.02588
           25647         65.2686         64.1874    -955.467E-03        -5.08994
           25648         64.9951         63.9921    -810.268E-03        -5.06199
           25649         65.3883         64.1740        -1.19220        -5.14486
           25650         65.1022         63.9681        -1.04638        -5.11068
           25651         65.5064         64.1606        -1.41847        -5.21171
           25652         65.2075         63.9440        -1.27192        -5.17165
           25653         65.6235         64.1478        -1.63472        -5.29016
           25654         65.3115         63.9202        -1.48738        -5.24457
           25655         65.7399         64.1359        -1.84135        -5.37986
           25656         65.4147         63.8970        -1.69319        -5.32907
           25657         65.8561         64.1251        -2.03870        -5.48044
           25658         65.5175         63.8747        -1.88974        -5.42479
           25659         65.9726         64.1158        -2.22704        -5.59152
           25660         65.6204         63.8537        -2.07733        -5.53133
           25661         66.0896         64.1081        -2.40659        -5.71270
           25662         65.7237         63.8340        -2.25623        -5.64829
           25663         66.2074         64.1024        -2.57754        -5.84355
           25664         65.8278         63.8160        -2.42664        -5.77526
           25665         66.3264         64.0987        -2.73997        -5.98366
           25666         65.9328         63.7999        -2.58870        -5.91178
           25667         66.4466         64.0973        -2.89396        -6.13257
           25668         66.0391         63.7858        -2.74251        -6.05743
           25669         66.5684         64.0983        -3.03951        -6.28982
           25670         66.1467         63.7738        -2.88811        -6.21174
           25671         66.6917         64.1020        -3.17656        -6.45495
           25672         66.2558         63.7642        -3.02547        -6.37423
           25673         66.8166         64.1084        -3.30502        -6.62747
           25674         66.3666         63.7570        -3.15454        -6.54442
           25675         66.9431         64.1176        -3.42473        -6.80686
           25676         66.4789         63.7524        -3.27518        -6.72180
           25677         67.0713         64.1298        -3.53549        -6.99260
           25678         66.5929         63.7505        -3.38724        -6.90586
           25679         67.2009         64.1451        -3.63702        -7.18415
           25680         66.7083         63.7513        -3.49048        -7.09604
           25681         67.3318         64.1636        -3.72901        -7.38095
           25682         66.8252         63.7551        -3.58461        -7.29180
           25683         67.4638         64.1853        -3.81109        -7.58241
           25684         66.9432         63.7617        -3.66932        -7.49256
           25685         67.5967         64.2103        -3.88283        -7.78793
           25686         67.0623         63.7714        -3.74420        -7.69772
           25687         67.7301         64.2388        -3.94374        -7.99687
           25688         67.1820         63.7842        -3.80882        -7.90664
           25689         67.8635         64.2706        -3.99330        -8.20857
           25690         67.3019         63.8001        -3.86267        -8.11869
           25691         67.9965         64.3060        -4.03088        -8.42235
           25692         67.4217         63.8191        -3.90521        -8.33317
           25693         68.1286         64.3449        -4.05584        -8.63748
           25694         67.5408         63.8414        -3.93580        -8.54938
           25695         68.2591         64.3873        -4.06746        -8.85321
           25696         67.6587         63.8670        -3.95379        -8.76659
           25697         68.3873         64.4333        -4.06494        -9.06876
           25698         67.7746         63.8958        -3.95843        -8.98400
           25699         68.5124         64.4828        -4.04746        -9.28331
           25700         67.8879         63.9278        -3.94894        -9.20083
           25701         68.6335         64.5358        -4.01409        -9.49599
           25702         67.9978         63.9631        -3.92445        -9.41620
           25703         68.7498         64.5924        -3.96387        -9.70590
           25704         68.1032         64.0016        -3.88404        -9.62924
           25705         68.8602         64.6523        -3.89576        -9.91209
           25706         68.2033         64.0434        -3.82673        -9.83902
           25707         68.9635         64.7157        -3.80864        -10.1136
           25708         68.2970         64.0882        -3.75147        -10.0445
           25709         69.0585         64.7823        -3.70135        -10.3093
           25710         68.3831         64.1362        -3.65715        -10.2448
           25711         69.1441         64.8522        -3.57266        -10.4982
           25712         68.4604         64.1871        -3.54258        -10.4387
           25713         69.2187         64.9251        -3.42124        -10.6792
           25714         68.5275         64.2409        -3.40651        -10.6252
           25715         69.2810         65.0009        -3.24574        -10.8509
           25716         68.5831         64.2975        -3.24765        -10.8030
           25717         69.3295         65.0795        -3.04472        -11.0123
           25718         68.6257         64.3567        -3.06460        -10.9709
           25719         69.3625         65.1607        -2.81666        -11.1619
           25720         68.6538         64.4184        -2.85593        -11.1277
           25721         69.3783         65.2443        -2.56002        -11.2983
           25722         68.6656         64.4824        -2.62015        -11.2719
           25723         69.3753         65.3299        -2.27317        -11.4202
           25724         68.6595         64.5484        -2.35570        -11.4022
           25725         69.3518         65.4175        -1.95444        -11.5260
           25726         68.6339         64.6163        -2.06097        -11.5169
           25727         69.3058         65.5067        -1.60210        -11.6141
           25728         68.5868         64.6858        -1.73429        -11.6147
           25729         69.2357         65.5972        -1.21437        -11.6828
           25730         68.5166         64.7567        -1.37395        -11.6937
           25731         69.1396         65.6887    -789.453E-03        -11.7303
           25732         68.4213         64.8286    -978.224E-03        -11.7523
           25733         69.0157         65.7809    -325.495E-03        -11.7548
           25734         68.2993         64.9013    -545.320E-03        -11.7887
           25735         68.8622         65.8734     179.377E-03        -11.7542
           25736         68.1487         64.9745    -73.4394E-03        -11.8008
           25737         68.6776         65.9660     727.045E-03        -11.7264
           25738         67.9678         65.0478     439.237E-03        -11.7866
           25739         68.4602         66.0583         1.31941        -11.6692
           25740         67.7550         65.1210     994.528E-03        -11.7440
           25741         68.2085         66.1499         1.95837        -11.5802
           25742         67.5089         65.1938         1.59426        -11.6706
           25743         67.9214         66.2405         2.64582        -11.4567
           25744         67.2280         65.2658         2.24023        -11.5638
           25745         67.5977         66.3298         3.38363        -11.2960
           25746         66.9112         65.3368         2.93423        -11.4211
           25747         67.2369         66.4175         4.17369        -11.0951
           25748         66.5578         65.4065         3.67802        -11.2394
           25749         66.8383         66.5032         5.01781        -10.8506
           25750         66.1671         65.4746         4.47332        -11.0157
           25751         66.4022         66.5868         5.91782        -10.5589
           25752         65.7389         65.5410         5.32180        -10.7466
           25753         65.9290         66.6680         6.87554        -10.2162
           25754         65.2737         65.6054         6.22512        -10.4282
           25755         65.4198         66.7464         7.89277        -9.81820
           25756         64.7723         65.6677         7.18488        -10.0565
           25757         64.8768         66.8219         8.97134        -9.36004
           25758         64.2364         65.7278         8.20270        -9.62690
           25759         64.3028         66.8942         10.1132        -8.83653
           25760         63.6684         65.7854         9.28019        -9.13446
           25761         63.7019         66.9629         11.3202        -8.24191
           25762         63.0719         65.8405         10.4190        -8.57362
           25763         63.0798         67.0277         12.5945        -7.56979
           25764         62.4518         65.8929         11.6209        -7.93827
           25765         62.4439         67.0881         13.9385        -6.81315
           25766         61.8148         65.9421         12.8877        -7.22165
           25767         61.8040         67.1433         15.3548        -5.96428
           25768         61.1694         65.9879         14.2217        -6.41631
           25769         61.1728         67.1924         16.8464        -5.01470
           25770         60.5271         66.0295         15.6253        -5.51403
           25771         60.5666         67.2342         18.4168        -3.95518
           25772         59.9022         66.0661         17.1013        -4.50580
           25773         60.0060         67.2671         20.0702        -2.77570
           25774         59.3135         66.0966         18.6532        -3.38182
           25775         59.5174         67.2890         21.8115        -1.46549
           25776         58.7845         66.1191         20.2851        -2.13141
           25777         59.1329         67.2970         23.6467    -12.3154E-03
           25778         58.3448         66.1317         22.0020    -743.189E-03
           25779         55.3823         60.0771         17.2340        -8.08920
           25780         55.2548         59.9591         17.5919        -8.23232
           25781         54.9392         59.7758         17.9350        -8.07444
           25782         55.8403         60.3817         16.5083        -8.09263
           25783         55.7088         60.2641         16.8727        -8.24309
           25784         56.3093         60.6871         15.7620        -8.08146
           25785         56.1758         60.5712         16.1295        -8.23961
           25786         56.7851         60.9905         14.9999        -8.05327
           25787         56.6514         60.8776         15.3669        -8.21895
           25788         57.2635         61.2891         14.2270        -8.00645
           25789         57.1311         61.1803         14.5901        -8.17902
           25790         57.7401         61.5799         13.4488        -7.94022
           25791         57.6104         61.4762         13.8049        -8.11861
           25792         58.2107         61.8600         12.6705        -7.85461
           25793         58.0848         61.7621         13.0169        -8.03739
           25794         58.6716         62.1269         11.8974        -7.75040
           25795         58.5500         62.0352         12.2320        -7.93590
           25796         59.1194         62.3784         11.1343        -7.62900
           25797         59.0024         62.2929         11.4553        -7.81541
           25798         59.5512         62.6127         10.3854        -7.49239
           25799         59.4388         62.5332         10.6918        -7.67783
           25800         59.9649         62.8284         9.65456        -7.34288
           25801         59.8566         62.7545         9.94544        -7.52553
           25802         60.3588         63.0247         8.94467        -7.18308
           25803         60.2539         62.9556         9.21991        -7.36121
           25804         60.7316         63.2013         8.25821        -7.01570
           25805         60.6294         63.1361         8.51794        -7.18774
           25806         61.0829         63.3580         7.59694        -6.84348
           25807         60.9823         63.2957         7.84164        -7.00805
           25808         61.4125         63.4953         6.96207        -6.66908
           25809         61.3123         63.4348         7.19246        -6.82503
           25810         61.7205         63.6138         6.35427        -6.49501
           25811         61.6197         63.5540         6.57128        -6.64140
           25812         62.0076         63.7143         5.77378        -6.32361
           25813         61.9050         63.6542         5.97845        -6.45972
           25814         62.2745         63.7980         5.22045        -6.15698
           25815         62.1689         63.7364         5.41391        -6.28228
           25816         62.5222         63.8661         4.69383        -5.99699
           25817         62.4125         63.8018         4.87723        -6.11113
           25818         62.7517         63.9197         4.19322        -5.84526
           25819         62.6370         63.8519         4.36773        -5.94805
           25820         62.9643         63.9601         3.71774        -5.70316
           25821         62.8436         63.8880         3.88449        -5.79456
           25822         63.1613         63.9887         3.26640        -5.57186
           25823         63.0336         63.9113         3.42646        -5.65192
           25824         63.3438         64.0067         2.83808        -5.45228
           25825         63.2085         63.9234         2.99248        -5.52117
           25826         63.5132         64.0154         2.43165        -5.34518
           25827         63.3694         63.9254         2.58133        -5.40313
           25828         63.6707         64.0157         2.04593        -5.25113
           25829         63.5178         63.9186         2.19178        -5.29843
           25830         63.8173         64.0090         1.67978        -5.17054
           25831         63.6549         63.9041         1.82257        -5.20753
           25832         63.9544         63.9961         1.33205        -5.10370
           25833         63.7818         63.8830         1.47250        -5.13073
           25834         64.0830         63.9779         1.00165        -5.05078
           25835         63.8997         63.8563         1.14038        -5.06824
           25836         64.2040         63.9555     687.520E-03        -5.01182
           25837         64.0097         63.8249     825.101E-03        -5.02011
           25838         64.3185         63.9294     388.671E-03        -4.98682
           25839         64.1129         63.7896     525.585E-03        -4.98633
           25840         64.4274         63.9004     104.170E-03        -4.97568
           25841         64.2100         63.7512     240.836E-03        -4.96682
           25842         64.5315         63.8693    -166.852E-03        -4.97823
           25843         64.3021         63.7103    -30.0769E-03        -4.96140
           25844         64.6316         63.8364    -425.198E-03        -4.99428
           25845         64.3899         63.6674    -288.016E-03        -4.96986
           25846         64.7283         63.8024    -671.601E-03        -5.02356
           25847         64.4741         63.6232    -533.771E-03        -4.99194
           25848         64.8225         63.7677    -906.730E-03        -5.06579
           25849         64.5555         63.5780    -768.061E-03        -5.02735
           25850         64.9146         63.7327        -1.13119        -5.12066
           25851         64.6346         63.5324    -991.538E-03        -5.07576
           25852         65.0052         63.6979        -1.34551        -5.18781
           25853         64.7121         63.4867        -1.20478        -5.13682
           25854         65.0949         63.6634        -1.55018        -5.26690
           25855         64.7884         63.4411        -1.40831        -5.21014
           25856         65.1841         63.6297        -1.74560        -5.35753
           25857         64.8641         63.3961        -1.60258        -5.29535
           25858         65.2732         63.5969        -1.93212        -5.45930
           25859         64.9395         63.3518        -1.78798        -5.39204
           25860         65.3625         63.5653        -2.11005        -5.57181
           25861         65.0151         63.3085        -1.96484        -5.49978
           25862         65.4525         63.5351        -2.27961        -5.69464
           25863         65.0911         63.2664        -2.13342        -5.61815
           25864         65.5434         63.5065        -2.44099        -5.82733
           25865         65.1679         63.2256        -2.29395        -5.74671
           25866         65.6353         63.4797        -2.59431        -5.96945
           25867         65.2457         63.1864        -2.44659        -5.88500
           25868         65.7286         63.4548        -2.73964        -6.12054
           25869         65.3246         63.1488        -2.59143        -6.03256
           25870         65.8233         63.4320        -2.87700        -6.28012
           25871         65.4050         63.1130        -2.72853        -6.18892
           25872         65.9195         63.4113        -3.00636        -6.44770
           25873         65.4867         63.0791        -2.85789        -6.35358
           25874         66.0174         63.3929        -3.12763        -6.62278
           25875         65.5701         63.0472        -2.97946        -6.52605
           25876         66.1168         63.3769        -3.24067        -6.80484
           25877         65.6550         63.0173        -3.09312        -6.70581
           25878         66.2177         63.3633        -3.34529        -6.99336
           25879         65.7414         62.9897        -3.19873        -6.89234
           25880         66.3201         63.3523        -3.44125        -7.18777
           25881         65.8293         62.9643        -3.29606        -7.08508
           25882         66.4238         63.3439        -3.52824        -7.38751
           25883         65.9185         62.9412        -3.38487        -7.28348
           25884         66.5285         63.3383        -3.60592        -7.59199
           25885         66.0088         62.9205        -3.46484        -7.48694
           25886         66.6340         63.3353        -3.67389        -7.80058
           25887         66.1000         62.9022        -3.53561        -7.69485
           25888         66.7400         63.3352        -3.73169        -8.01265
           25889         66.1919         62.8864        -3.59676        -7.90659
           25890         66.8461         63.3380        -3.77879        -8.22753
           25891         66.2839         62.8731        -3.64780        -8.12149
           25892         66.9517         63.3436        -3.81464        -8.44451
           25893         66.3758         62.8624        -3.68823        -8.33887
           25894         67.0563         63.3522        -3.83861        -8.66288
           25895         66.4670         62.8543        -3.71745        -8.55801
           25896         67.1594         63.3637        -3.85000        -8.88186
           25897         66.5569         62.8489        -3.73482        -8.77815
           25898         67.2603         63.3781        -3.84808        -9.10067
           25899         66.6450         62.8460        -3.73965        -8.99853
           25900         67.3581         63.3955        -3.83203        -9.31846
           25901         66.7304         62.8459        -3.73117        -9.21831
           25902         67.4520         63.4159        -3.80099        -9.53437
           25903         66.8124         62.8483        -3.70857        -9.43663
           25904         67.5412         63.4392        -3.75403        -9.74747
           25905         66.8900         62.8534        -3.67097        -9.65259
           25906         67.6245         63.4653        -3.69015        -9.95680
           25907         66.9625         62.8611        -3.61743        -9.86525
           25908         67.7009         63.4943        -3.60829        -10.1614
           25909         67.0286         62.8714        -3.54695        -10.0736
           25910         67.7692         63.5261        -3.50733        -10.3601
           25911         67.0872         62.8842        -3.45846        -10.2767
           25912         67.8281         63.5605        -3.38608        -10.5519
           25913         67.1372         62.8995        -3.35083        -10.4733
           25914         67.8763         63.5975        -3.24330        -10.7356
           25915         67.1772         62.9171        -3.22287        -10.6623
           25916         67.9123         63.6370        -3.07767        -10.9100
           25917         67.2059         62.9371        -3.07332        -10.8426
           25918         67.9347         63.6789        -2.88780        -11.0738
           25919         67.2217         62.9592        -2.90087        -11.0128
           25920         67.9417         63.7229        -2.67227        -11.2257
           25921         67.2232         62.9833        -2.70414        -11.1718
           25922         67.9319         63.7689        -2.42958        -11.3642
           25923         67.2086         63.0094        -2.48170        -11.3180
           25924         67.9034         63.8167        -2.15818        -11.4880
           25925         67.1764         63.0371        -2.23206        -11.4500
           25926         67.8546         63.8661        -1.85646        -11.5954
           25927         67.1248         63.0664        -1.95367        -11.5664
           25928         67.7836         63.9168        -1.52279        -11.6848
           25929         67.0521         63.0970        -1.64497        -11.6655
           25930         67.6886         63.9686        -1.15548        -11.7546
           25931         66.9564         63.1287        -1.30432        -11.7456
           25932         67.5678         64.0213    -752.812E-03        -11.8029
           25933         66.8359         63.1613    -930.068E-03        -11.8051
           25934         67.4195         64.0745    -313.046E-03        -11.8278
           25935         66.6889         63.1945    -520.537E-03        -11.8420
           25936         67.2419         64.1280     165.575E-03        -11.8274
           25937         66.5136         63.2281    -74.0330E-03        -11.8544
           25938         67.0334         64.1816     684.806E-03        -11.7995
           25939         66.3082         63.2618     411.144E-03        -11.8402
           25940         66.7923         64.2348         1.24640        -11.7418
           25941         66.0713         63.2953     936.678E-03        -11.7973
           25942         66.5173         64.2875         1.85210        -11.6521
           25943         65.8013         63.3285         1.50424        -11.7233
           25944         66.2072         64.3394         2.50360        -11.5275
           25945         65.4969         63.3611         2.11547        -11.6158
           25946         65.8610         64.3902         3.20258        -11.3655
           25947         65.1570         63.3929         2.77194        -11.4720
           25948         65.4780         64.4399         3.95065        -11.1630
           25949         64.7809         63.4237         3.47521        -11.2891
           25950         65.0578         64.4881         4.74938        -10.9168
           25951         64.3680         63.4534         4.22671        -11.0640
           25952         64.6006         64.5348         5.60026        -10.6232
           25953         63.9182         63.4819         5.02783        -10.7933
           25954         64.1071         64.5798         6.50474        -10.2784
           25955         63.4321         63.5092         5.87988        -10.4733
           25956         63.5786         64.6232         7.46423        -9.87807
           25957         62.9107         63.5353         6.78409        -10.0999
           25958         63.0171         64.6648         8.48006        -9.41750
           25959         62.3556         63.5602         7.74159        -9.66864
           25960         62.4258         64.7047         9.55363        -8.89144
           25961         61.7696         63.5841         8.75351        -9.17446
           25962         61.8089         64.7428         10.6863        -8.29405
           25963         61.1564         63.6070         9.82092        -8.61185
           25964         61.1723         64.7791         11.8795        -7.61889
           25965         60.5212         63.6291         10.9449        -7.97464
           25966         60.5236         64.8134         13.1350        -6.85880
           25967         59.8707         63.6504         12.1268        -7.25601
           25968         59.8728         64.8453         14.4545        -6.00587
           25969         59.2138         63.6708         13.3678        -6.44833
           25970         59.2328         64.8745         15.8404        -5.05138
           25971         58.5621         63.6903         14.6697        -5.54319
           25972         58.6202         64.9000         17.2953        -3.98575
           25973         57.9303         63.7083         16.0344        -4.53129
           25974         58.0561         64.9207         18.8225        -2.79854
           25975         57.3375         63.7241         17.4647        -3.40244
           25976         57.5670         64.9349         20.4261        -1.47844
           25977         56.8075         63.7365         18.9636        -2.14550
           25978         57.1860         64.9403         22.1113    -12.5749E-03
           25979         56.3706         63.7437         20.5352    -748.474E-03
           25980         55.5874         60.1542         17.2454        -8.39471
           25981         55.4673         60.0436         17.6110        -8.53759
           25982         55.1367         59.8487         17.9572        -8.37536
           25983         56.0533         60.4634         16.5053        -8.40034
           25984         55.9300         60.3534         16.8781        -8.55199
           25985         56.5300         60.7734         15.7417        -8.38855
           25986         56.4055         60.6656         16.1175        -8.54932
           25987         57.0125         61.0811         14.9600        -8.35664
           25988         56.8890         60.9769         15.3349        -8.52627
           25989         57.4960         61.3829         14.1664        -8.30290
           25990         57.3752         61.2837         14.5364        -8.48056
           25991         57.9755         61.6756         13.3672        -8.22663
           25992         57.8588         61.5823         13.7287        -8.41096
           25993         58.4465         61.9558         12.5684        -8.12807
           25994         58.3349         61.8692         12.9187        -8.31734
           25995         58.9047         62.2206         11.7762        -8.00836
           25996         58.7988         62.1412         12.1127        -8.20057
           25997         59.3465         62.4676         10.9959        -7.86939
           25998         59.2464         62.3953         11.3168        -8.06237
           25999         59.7691         62.6950         10.2323        -7.71360
           26000         59.6745         62.6294         10.5364        -7.90519
           26001         60.1703         62.9013         9.48935        -7.54386
           26002         60.0805         62.8418         9.77617        -7.73195
           26003         60.5485         63.0859         8.77035        -7.36325
           26004         60.4626         63.0316         9.03977        -7.54592
           26005         60.9028         63.2484         8.07771        -7.17496
           26006         60.8198         63.1982         8.33009        -7.35049
           26007         61.2330         63.3892         7.41317        -6.98213
           26008         61.1516         63.3419         7.64921        -7.14904
           26009         61.5392         63.5087         6.77777        -6.78774
           26010         61.4581         63.4631         6.99845        -6.94485
           26011         61.8219         63.6080         6.17200        -6.59461
           26012         61.7397         63.5627         6.37847        -6.74096
           26013         62.0821         63.6881         5.59584        -6.40525
           26014         61.9975         63.6420         5.78936        -6.54014
           26015         62.3208         63.7505         5.04888        -6.22191
           26016         62.2326         63.7022         5.23079        -6.34488
           26017         62.5393         63.7964         4.53041        -6.04654
           26018         62.4463         63.7450         4.70204        -6.15731
           26019         62.7389         63.8273         4.03946        -5.88079
           26020         62.6400         63.7718         4.20213        -5.97928
           26021         62.9211         63.8448         3.57491        -5.72606
           26022         62.8154         63.7842         3.72986        -5.81229
           26023         63.0873         63.8502         3.13550        -5.58346
           26024         62.9739         63.7837         3.28394        -5.65759
           26025         63.2389         63.8450         2.71994        -5.45388
           26026         63.1170         63.7719         2.86295        -5.51616
           26027         63.3774         63.8304         2.32689        -5.33800
           26028         63.2462         63.7500         2.46549        -5.38874
           26029         63.5040         63.8077         1.95500        -5.23633
           26030         63.3630         63.7195         2.09011        -5.27589
           26031         63.6200         63.7780         1.60299        -5.14918
           26032         63.4687         63.6816         1.73542        -5.17797
           26033         63.7267         63.7423         1.26958        -5.07676
           26034         63.5645         63.6373         1.40007        -5.09520
           26035         63.8251         63.7016     953.558E-03        -5.01915
           26036         63.6517         63.5876         1.08275        -5.02767
           26037         63.9162         63.6568     653.793E-03        -4.97633
           26038         63.7313         63.5334     782.250E-03        -4.97536
           26039         64.0012         63.6085     369.209E-03        -4.94819
           26040         63.8043         63.4757     497.417E-03        -4.93818
           26041         64.0808         63.5576     98.8089E-03        -4.93458
           26042         63.8717         63.4149     227.182E-03        -4.91594
           26043         64.1559         63.5045    -158.329E-03        -4.93524
           26044         63.9344         63.3519    -29.4428E-03        -4.90841
           26045         64.2272         63.4499    -403.053E-03        -4.94993
           26046         63.9930         63.2871    -273.365E-03        -4.91531
           26047         64.2955         63.3942    -636.132E-03        -4.97832
           26048         64.0485         63.2210    -505.413E-03        -4.93630
           26049         64.3614         63.3379    -858.266E-03        -5.02008
           26050         64.1013         63.1541    -726.335E-03        -4.97104
           26051         64.4255         63.2812        -1.07008        -5.07484
           26052         64.1521         63.0867    -936.809E-03        -5.01915
           26053         64.4882         63.2246        -1.27214        -5.14221
           26054         64.2014         63.0192        -1.13744        -5.08023
           26055         64.5501         63.1683        -1.46493        -5.22180
           26056         64.2498         62.9518        -1.32875        -5.15387
           26057         64.6117         63.1126        -1.64887        -5.31319
           26058         64.2976         62.8848        -1.51122        -5.23963
           26059         64.6732         63.0576        -1.82435        -5.41595
           26060         64.3452         62.8184        -1.68524        -5.33709
           26061         64.7351         63.0036        -1.99165        -5.52964
           26062         64.3931         62.7527        -1.85116        -5.44580
           26063         64.7976         62.9508        -2.15103        -5.65382
           26064         64.4414         62.6880        -2.00925        -5.56531
           26065         64.8610         62.8992        -2.30268        -5.78803
           26066         64.4905         62.6243        -2.15975        -5.69514
           26067         64.9255         62.8490        -2.44673        -5.93181
           26068         64.5405         62.5618        -2.30282        -5.83484
           26069         64.9912         62.8003        -2.58327        -6.08468
           26070         64.5918         62.5005        -2.43857        -5.98392
           26071         65.0583         62.7533        -2.71233        -6.24615
           26072         64.6442         62.4406        -2.56707        -6.14190
           26073         65.1269         62.7080        -2.83389        -6.41572
           26074         64.6981         62.3822        -2.68832        -6.30828
           26075         65.1970         62.6644        -2.94787        -6.59288
           26076         64.7534         62.3252        -2.80229        -6.48254
           26077         65.2686         62.6227        -3.05415        -6.77711
           26078         64.8102         62.2698        -2.90889        -6.66418
           26079         65.3416         62.5830        -3.15255        -6.96787
           26080         64.8684         62.2161        -3.00797        -6.85264
           26081         65.4160         62.5453        -3.24285        -7.16460
           26082         64.9279         62.1640        -3.09934        -7.04738
           26083         65.4915         62.5096        -3.32478        -7.36671
           26084         64.9887         62.1137        -3.18276        -7.24783
           26085         65.5681         62.4760        -3.39801        -7.57362
           26086         65.0504         62.0651        -3.25794        -7.45339
           26087         65.6453         62.4446        -3.46215        -7.78469
           26088         65.1130         62.0184        -3.32454        -7.66345
           26089         65.7229         62.4153        -3.51678        -7.99928
           26090         65.1760         61.9735        -3.38216        -7.87738
           26091         65.8006         62.3883        -3.56140        -8.21672
           26092         65.2392         61.9304        -3.43037        -8.09451
           26093         65.8777         62.3635        -3.59549        -8.43630
           26094         65.3021         61.8893        -3.46865        -8.31415
           26095         65.9539         62.3410        -3.61844        -8.65728
           26096         65.3643         61.8502        -3.49647        -8.53557
           26097         66.0285         62.3208        -3.62960        -8.87890
           26098         65.4252         61.8130        -3.51321        -8.75803
           26099         66.1009         62.3030        -3.62826        -9.10035
           26100         65.4841         61.7777        -3.51821        -8.98072
           26101         66.1702         62.2874        -3.61366        -9.32079
           26102         65.5405         61.7445        -3.51075        -9.20283
           26103         66.2357         62.2742        -3.58497        -9.53932
           26104         65.5934         61.7133        -3.49006        -9.42348
           26105         66.2965         62.2633        -3.54130        -9.75503
           26106         65.6421         61.6840        -3.45529        -9.64175
           26107         66.3516         62.2547        -3.48170        -9.96693
           26108         65.6856         61.6568        -3.40556        -9.85671
           26109         66.3999         62.2483        -3.40517        -10.1740
           26110         65.7229         61.6315        -3.33991        -10.0673
           26111         66.4402         62.2441        -3.31062        -10.3752
           26112         65.7528         61.6082        -3.25732        -10.2726
           26113         66.4712         62.2421        -3.19693        -10.5694
           26114         65.7743         61.5868        -3.15671        -10.4713
           26115         66.4917         62.2422        -3.06289        -10.7554
           26116         65.7859         61.5672        -3.03694        -10.6625
           26117         66.5002         62.2443        -2.90726        -10.9319
           26118         65.7863         61.5494        -2.89683        -10.8447
           26119         66.4953         62.2482        -2.72872        -11.0978
           26120         65.7741         61.5333        -2.73511        -11.0169
           26121         66.4753         62.2539        -2.52589        -11.2515
           26122         65.7478         61.5187        -2.55046        -11.1775
           26123         66.4386         62.2612        -2.29734        -11.3918
           26124         65.7057         61.5057        -2.34152        -11.3254
           26125         66.3835         62.2699        -2.04160        -11.5171
           26126         65.6462         61.4940        -2.10688        -11.4589
           26127         66.3083         62.2800        -1.75713        -11.6258
           26128         65.5676         61.4835        -1.84505        -11.5765
           26129         66.2112         62.2911        -1.44238        -11.7164
           26130         65.4681         61.4740        -1.55455        -11.6767
           26131         66.0904         62.3030        -1.09575        -11.7870
           26132         65.3459         61.4654        -1.23381        -11.7577
           26133         65.9440         62.3157    -715.606E-03        -11.8359
           26134         65.1992         61.4574    -881.287E-03        -11.8178
           26135         65.7704         62.3288    -300.314E-03        -11.8612
           26136         65.0263         61.4499    -495.382E-03        -11.8552
           26137         65.5678         62.3420     151.773E-03        -11.8609
           26138         64.8253         61.4427    -74.5096E-03        -11.8678
           26139         65.3345         62.3553     642.287E-03        -11.8329
           26140         64.5947         61.4356     382.916E-03        -11.8536
           26141         65.0690         62.3683         1.17284        -11.7749
           26142         64.3328         61.4283     878.450E-03        -11.8104
           26143         64.7700         62.3809         1.74502        -11.6845
           26144         64.0381         61.4207         1.41362        -11.7360
           26145         64.4361         62.3929         2.36035        -11.5592
           26146         63.7094         61.4127         1.98990        -11.6278
           26147         64.0666         62.4041         3.02028        -11.3962
           26148         63.3457         61.4041         2.60868        -11.4833
           26149         63.6608         62.4144         3.72621        -11.1925
           26150         62.9462         61.3948         3.27128        -11.2996
           26151         63.2184         62.4238         4.47940        -10.9451
           26152         62.5105         61.3849         3.97890        -11.0736
           26153         62.7397         62.4324         5.28106        -10.6503
           26154         62.0386         61.3743         4.73263        -10.8020
           26155         62.2254         62.4400         6.13226        -10.3042
           26156         61.5311         61.3632         5.53343        -10.4811
           26157         61.6770         62.4470         7.03396        -9.90276
           26158         60.9891         61.3518         6.38213        -10.1070
           26159         61.0968         62.4535         7.98705        -9.44114
           26160         60.4146         61.3403         7.27942        -9.67523
           26161         60.4880         62.4596         8.99233        -8.91412
           26162         59.8105         61.3290         8.22587        -9.18077
           26163         59.8551         62.4658         10.0506        -8.31591
           26164         59.1806         61.3185         9.22199        -8.61815
           26165         59.2043         62.4723         11.1626        -7.63998
           26166         58.5303         61.3090         10.2682        -7.98121
           26167         58.5432         62.4792         12.3292        -6.87910
           26168         57.8667         61.3011         11.3650        -7.26304
           26169         57.8822         62.4867         13.5515        -6.02520
           26170         57.1989         61.2950         12.5129        -6.45594
           26171         57.2345         62.4948         14.8308        -5.06933
           26172         56.5387         61.2911         13.7127        -5.55131
           26173         56.6170         62.5030         16.1690        -4.00158
           26174         55.9013         61.2894         14.9654        -4.53957
           26175         56.0512         62.5108         17.5684        -2.81109
           26176         55.3061         61.2897         16.2728        -3.41019
           26177         55.5642         62.5169         19.0321        -1.48601
           26178         54.7775         61.2912         17.6369        -2.15153
           26179         55.1898         62.5195         20.5644    -12.7959E-03
           26180         54.3463         61.2929         19.0610    -751.017E-03
           26181         55.8175         60.2521         17.2606        -8.70514
           26182         55.7056         60.1499         17.6353        -8.84790
           26183         55.3575         59.9416         17.9855        -8.68054
           26184         56.2932         60.5669         16.5032        -8.71325
           26185         56.1787         60.4656         16.8858        -8.86643
           26186         56.7791         60.8826         15.7189        -8.70060
           26187         56.6646         60.7839         16.1046        -8.86457
           26188         57.2697         61.1953         14.9143        -8.66419
           26189         57.1575         61.1010         15.2984        -8.83856
           26190         57.7592         61.5010         14.0966        -8.60222
           26191         57.6513         61.4126         14.4745        -8.78590
           26192         58.2421         61.7957         13.2730        -8.51409
           26193         58.1400         61.7144         13.6409        -8.70539
           26194         58.7131         62.0758         12.4509        -8.40038
           26195         58.6177         62.0023         12.8053        -8.59718
           26196         59.1678         62.3380         11.6371        -8.26272
           26197         59.0796         62.2726         11.9754        -8.46258
           26198         59.6023         62.5796         10.8378        -8.10353
           26199         59.5212         62.5223         11.1581        -8.30392
           26200         60.0138         62.7986         10.0580        -7.92591
           26201         59.9392         62.7488         10.3593        -8.12429
           26202         60.4002         62.9939         9.30231        -7.73335
           26203         60.3311         62.9507         9.58415        -7.92733
           26204         60.7602         63.1647         8.57394        -7.52951
           26205         60.6955         63.1270         8.83646        -7.71696
           26206         61.0933         63.3111         7.87537        -7.31812
           26207         61.0314         63.2776         8.11919        -7.49716
           26208         61.3994         63.4336         7.20817        -7.10275
           26209         61.3390         63.4029         7.43429        -7.27184
           26210         61.6793         63.5331         6.57317        -6.88677
           26211         61.6187         63.5037         6.78286        -7.04468
           26212         61.9338         63.6109         5.97058        -6.67324
           26213         61.8716         63.5813         6.16526        -6.81906
           26214         62.1642         63.6684         5.40007        -6.46487
           26215         62.0989         63.6373         5.58127        -6.59797
           26216         62.3720         63.7072         4.86091        -6.26403
           26217         62.3023         63.6733         5.03018        -6.38402
           26218         62.5588         63.7290         4.35206        -6.07273
           26219         62.4833         63.6912         4.51091        -6.17945
           26220         62.7262         63.7355         3.87224        -5.89263
           26221         62.6439         63.6927         4.02215        -5.98608
           26222         62.8759         63.7284         3.42004        -5.72509
           26223         62.7858         63.6797         3.56240        -5.80542
           26224         63.0095         63.7092         2.99396        -5.57115
           26225         62.9107         63.6538         3.13006        -5.63864
           26226         63.1285         63.6794         2.59247        -5.43164
           26227         63.0203         63.6167         2.72347        -5.48663
           26228         63.2346         63.6405         2.21402        -5.30714
           26229         63.1163         63.5699         2.34099        -5.35003
           26230         63.3291         63.5938         1.85710        -5.19804
           26231         63.2001         63.5147         1.98100        -5.22929
           26232         63.4133         63.5403         1.52026        -5.10458
           26233         63.2733         63.4524         1.64193        -5.12465
           26234         63.4886         63.4812         1.20210        -5.02684
           26235         63.3370         63.3842         1.32229        -5.03621
           26236         63.5560         63.4174     901.322E-03        -4.96480
           26237         63.3926         63.3109         1.02067        -4.96396
           26238         63.6166         63.3497     616.687E-03        -4.91835
           26239         63.4410         63.2336     735.759E-03        -4.90778
           26240         63.6713         63.2789     347.051E-03        -4.88731
           26241         63.4834         63.1529     466.321E-03        -4.86747
           26242         63.7211         63.2056     91.3605E-03        -4.87140
           26243         63.5205         63.0696     211.231E-03        -4.84276
           26244         63.7668         63.1305    -151.355E-03        -4.87034
           26245         63.5533         62.9843    -30.5509E-03        -4.83332
           26246         63.8090         63.0540    -381.981E-03        -4.88378
           26247         63.5826         62.8974    -259.970E-03        -4.83880
           26248         63.8485         62.9764    -601.319E-03        -4.91135
           26249         63.6089         62.8094    -477.886E-03        -4.85882
           26250         63.8858         62.8983    -810.090E-03        -4.95265
           26251         63.6329         62.7207    -685.071E-03        -4.89295
           26252         63.9215         62.8199        -1.00894        -5.00727
           26253         63.6551         62.6315    -882.221E-03        -4.94076
           26254         63.9561         62.7415        -1.19845        -5.07479
           26255         63.6761         62.5422        -1.06995        -5.00182
           26256         63.9900         62.6633        -1.37911        -5.15475
           26257         63.6962         62.4529        -1.24881        -5.07567
           26258         64.0236         62.5855        -1.55137        -5.24673
           26259         63.7159         62.3639        -1.41927        -5.16185
           26260         64.0573         62.5083        -1.71560        -5.35025
           26261         63.7356         62.2753        -1.58173        -5.25988
           26262         64.0914         62.4318        -1.87212        -5.46487
           26263         63.7554         62.1873        -1.73656        -5.36931
           26264         64.1260         62.3561        -2.02117        -5.59010
           26265         63.7758         62.0999        -1.88403        -5.48965
           26266         64.1615         62.2814        -2.16296        -5.72548
           26267         63.7969         62.0132        -2.02438        -5.62043
           26268         64.1981         62.2077        -2.29764        -5.87052
           26269         63.8188         61.9273        -2.15778        -5.76116
           26270         64.2358         62.1351        -2.42529        -6.02475
           26271         63.8419         61.8423        -2.28435        -5.91134
           26272         64.2748         62.0637        -2.54595        -6.18765
           26273         63.8661         61.7581        -2.40417        -6.07049
           26274         64.3152         61.9935        -2.65962        -6.35873
           26275         63.8915         61.6750        -2.51725        -6.23809
           26276         64.3569         61.9245        -2.76624        -6.53746
           26277         63.9183         61.5928        -2.62356        -6.41363
           26278         64.4000         61.8569        -2.86569        -6.72331
           26279         63.9463         61.5116        -2.72303        -6.59659
           26280         64.4444         61.7907        -2.95781        -6.91574
           26281         63.9756         61.4315        -2.81553        -6.78641
           26282         64.4900         61.7258        -3.04241        -7.11419
           26283         64.0061         61.3524        -2.90089        -6.98255
           26284         64.5366         61.6623        -3.11922        -7.31807
           26285         64.0376         61.2745        -2.97887        -7.18442
           26286         64.5841         61.6004        -3.18794        -7.52678
           26287         64.0699         61.1976        -3.04923        -7.39145
           26288         64.6321         61.5399        -3.24822        -7.73969
           26289         64.1028         61.1219        -3.11162        -7.60301
           26290         64.6804         61.4809        -3.29964        -7.95616
           26291         64.1361         61.0474        -3.16569        -7.81847
           26292         64.7286         61.4235        -3.34176        -8.17550
           26293         64.1694         60.9740        -3.21102        -8.03715
           26294         64.7763         61.3677        -3.37405        -8.39702
           26295         64.2024         60.9019        -3.24715        -8.25837
           26296         64.8229         61.3135        -3.39596        -8.61996
           26297         64.2344         60.8310        -3.27354        -8.48140
           26298         64.8678         61.2608        -3.40688        -8.84355
           26299         64.2651         60.7614        -3.28963        -8.70548
           26300         64.9105         61.2099        -3.40612        -9.06699
           26301         64.2938         60.6930        -3.29479        -8.92982
           26302         64.9501         61.1606        -3.39297        -9.28942
           26303         64.3198         60.6259        -3.28834        -9.15358
           26304         64.9860         61.1129        -3.36664        -9.50995
           26305         64.3425         60.5602        -3.26955        -9.37589
           26306         65.0172         61.0669        -3.32629        -9.72764
           26307         64.3609         60.4958        -3.23763        -9.59583
           26308         65.0427         61.0226        -3.27100        -9.94151
           26309         64.3741         60.4326        -3.19172        -9.81244
           26310         65.0616         60.9799        -3.19983        -10.1505
           26311         64.3812         60.3709        -3.13093        -10.0247
           26312         65.0725         60.9388        -3.11176        -10.3536
           26313         64.3812         60.3104        -3.05427        -10.2316
           26314         65.0744         60.8993        -3.00569        -10.5496
           26315         64.3727         60.2513        -2.96074        -10.4319
           26316         65.0660         60.8613        -2.88050        -10.7374
           26317         64.3546         60.1934        -2.84924        -10.6246
           26318         65.0457         60.8248        -2.73498        -10.9156
           26319         64.3255         60.1367        -2.71865        -10.8083
           26320         65.0122         60.7897        -2.56788        -11.0831
           26321         64.2840         60.0813        -2.56775        -10.9819
           26322         64.9639         60.7560        -2.37789        -11.2383
           26323         64.2286         60.0269        -2.39531        -11.1439
           26324         64.8992         60.7234        -2.16365        -11.3799
           26325         64.1577         59.9736        -2.20001        -11.2929
           26326         64.8163         60.6919        -1.92374        -11.5064
           26327         64.0697         59.9213        -1.98050        -11.4275
           26328         64.7136         60.6614        -1.65672        -11.6162
           26329         63.9628         59.8698        -1.73540        -11.5461
           26330         64.5893         60.6317        -1.36110        -11.7076
           26331         63.8354         59.8191        -1.46327        -11.6471
           26332         64.4416         60.6026        -1.03536        -11.7789
           26333         63.6856         59.7689        -1.16264        -11.7287
           26334         64.2687         60.5741    -677.965E-03        -11.8283
           26335         63.5117         59.7193    -832.036E-03        -11.7893
           26336         64.0688         60.5458    -287.376E-03        -11.8539
           26337         63.3119         59.6699    -469.959E-03        -11.8270
           26338         63.8403         60.5176     137.951E-03        -11.8536
           26339         63.0844         59.6207    -74.9182E-03        -11.8397
           26340         63.5814         60.4895     599.529E-03        -11.8255
           26341         62.8275         59.5715     354.563E-03        -11.8255
           26342         63.2907         60.4611         1.09884        -11.7671
           26343         62.5398         59.5223     819.920E-03        -11.7821
           26344         62.9668         60.4324         1.63732        -11.6763
           26345         62.2197         59.4728         1.32254        -11.7074
           26346         62.6085         60.4033         2.21633        -11.5504
           26347         61.8661         59.4230         1.86375        -11.5988
           26348         62.2150         60.3736         2.83711        -11.3867
           26349         61.4778         59.3728         2.44476        -11.4538
           26350         61.7858         60.3435         3.50084        -11.1824
           26351         61.0543         59.3223         3.06667        -11.2695
           26352         61.3206         60.3129         4.20852        -10.9343
           26353         60.5952         59.2716         3.73045        -11.0431
           26354         60.8197         60.2821         4.96102        -10.6389
           26355         60.1006         59.2207         4.43690        -10.7712
           26356         60.2842         60.2512         5.75906        -10.2926
           26357         59.5712         59.1700         5.18664        -10.4503
           26358         59.7156         60.2205         6.60317        -9.89100
           26359         59.0083         59.1199         5.98009        -10.0765
           26360         59.1164         60.1905         7.49375        -9.42962
           26361         58.4141         59.0707         6.81750        -9.64536
           26362         58.4900         60.1616         8.43103        -8.90327
           26363         57.7916         59.0231         7.69890        -9.15209
           26364         57.8412         60.1345         9.41513        -8.30614
           26365         57.1449         58.9777         8.62417        -8.59122
           26366         57.1763         60.1098         10.4461        -7.63176
           26367         56.4797         58.9354         9.59302        -7.95665
           26368         56.5034         60.0881         11.5240        -6.87280
           26369         55.8034         58.8969         10.6051        -7.24148
           26370         55.8331         60.0699         12.6490        -6.02110
           26371         55.1253         58.8630         11.6602        -6.43792
           26372         55.1789         60.0558         13.8215        -5.06750
           26373         54.4578         58.8346         12.7579        -5.53725
           26374         54.5581         60.0458         15.0423        -4.00179
           26375         53.8163         58.8121         13.8984        -4.52967
           26376         53.9927         60.0399         16.3127        -2.81271
           26377         53.2206         58.7960         15.0823        -3.40428
           26378         53.5105         60.0374         17.6347        -1.48787
           26379         52.6958         58.7860         16.3105        -2.14897
           26380         53.1458         60.0370         19.0116    -12.9850E-03
           26381         52.2735         58.7816         17.5851    -750.554E-03
           26382         56.0761         60.3741         17.2801        -9.02154
           26383         55.9730         60.2815         17.6657        -9.16432
           26384         55.6046         60.0575         18.0207        -8.99090
           26385         56.5636         60.6957         16.5020        -9.03241
           26386         56.4588         60.6042         16.8963        -9.18756
           26387         57.0606         61.0181         15.6932        -9.01857
           26388         56.9572         60.9298         16.0906        -9.18645
           26389         57.5607         61.3367         14.8616        -8.97666
           26390         57.4613         61.2537         15.2564        -9.15672
           26391         58.0572         61.6468         14.0157        -8.90480
           26392         57.9639         61.5709         14.4028        -9.09562
           26393         58.5436         61.9439         13.1641        -8.80260
           26394         58.4581         61.8763         13.5390        -9.00207
           26395         59.0143         62.2235         12.3154        -8.67110
           26396         58.9374         62.1651         12.6743        -8.87658
           26397         59.4643         62.4822         11.4774        -8.51252
           26398         59.3962         62.4330         11.8174        -8.72109
           26399         59.8898         62.7170         10.6570        -8.33006
           26400         59.8301         62.6769         10.9763        -8.53870
           26401         60.2878         62.9259         9.85989        -8.12756
           26402         60.2356         62.8941         10.1575        -8.33336
           26403         60.6566         63.1079         9.09078        -7.90927
           26404         60.6106         63.0832         9.36649        -8.10952
           26405         60.9952         63.2626         8.35306        -7.67956
           26406         60.9538         63.2435         8.60734        -7.87189
           26407         61.3036         63.3902         7.64907        -7.44273
           26408         61.2651         63.3752         7.88290        -7.62515
           26409         61.5824         63.4918         6.98015        -7.20286
           26410         61.5448         63.4792         7.19489        -7.37376
           26411         61.8325         63.5686         6.34681        -6.96367
           26412         61.7942         63.5567         6.54407        -7.12185
           26413         62.0556         63.6222         5.74889        -6.72848
           26414         62.0147         63.6095         5.93041        -6.87309
           26415         62.2532         63.6545         5.18565        -6.50019
           26416         62.2082         63.6395         5.35324        -6.63070
           26417         62.4272         63.6675         4.65597        -6.28123
           26418         62.3767         63.6488         4.81142        -6.39739
           26419         62.5797         63.6631         4.15842        -6.07363
           26420         62.5223         63.6395         4.30346        -6.17540
           26421         62.7125         63.6433         3.69139        -5.87902
           26422         62.6472         63.6137         3.82765        -5.96656
           26423         62.8275         63.6099         3.25315        -5.69869
           26424         62.7533         63.5735         3.38212        -5.77228
           26425         62.9266         63.5646         2.84190        -5.53358
           26426         62.8426         63.5206         2.96498        -5.59361
           26427         63.0114         63.5091         2.45587        -5.38440
           26428         62.9170         63.4569         2.57429        -5.43133
           26429         63.0837         63.4448         2.09330        -5.25160
           26430         62.9783         63.3840         2.20817        -5.28595
           26431         63.1449         63.3731         1.75251        -5.13545
           26432         63.0280         63.3032         1.86481        -5.15775
           26433         63.1964         63.2951         1.43190        -5.03605
           26434         63.0676         63.2158         1.54248        -5.04684
           26435         63.2394         63.2120         1.12995        -4.95337
           26436         63.0984         63.1230         1.23956        -4.95320
           26437         63.2751         63.1246     845.246E-03        -4.88728
           26438         63.1216         63.0257     954.521E-03        -4.87667
           26439         63.3045         63.0338     576.480E-03        -4.83755
           26440         63.1384         62.9249     685.967E-03        -4.81703
           26441         63.3286         62.9402     322.443E-03        -4.80389
           26442         63.1496         62.8211     432.602E-03        -4.77396
           26443         63.3483         62.8445     82.0284E-03        -4.78596
           26444         63.1562         62.7151     193.242E-03        -4.74708
           26445         63.3642         62.7472    -145.772E-03        -4.78338
           26446         63.1590         62.6074    -33.1912E-03        -4.73601
           26447         63.3771         62.6486    -361.874E-03        -4.79572
           26448         63.1586         62.4984    -247.674E-03        -4.74029
           26449         63.3875         62.5493    -567.102E-03        -4.82257
           26450         63.1556         62.3885    -451.088E-03        -4.75947
           26451         63.3961         62.4494    -762.195E-03        -4.86346
           26452         63.1507         62.2780    -644.223E-03        -4.79308
           26453         63.4033         62.3493    -947.814E-03        -4.91794
           26454         63.1443         62.1672    -827.785E-03        -4.84063
           26455         63.4096         62.2491        -1.12454        -4.98552
           26456         63.1368         62.0562        -1.00240        -4.90163
           26457         63.4154         62.1490        -1.29288        -5.06575
           26458         63.1287         61.9452        -1.16861        -4.97560
           26459         63.4209         62.0492        -1.45329        -5.15813
           26460         63.1202         61.8343        -1.32691        -5.06203
           26461         63.4265         61.9498        -1.60614        -5.26219
           26462         63.1117         61.7236        -1.47769        -5.16044
           26463         63.4325         61.8508        -1.75175        -5.37744
           26464         63.1034         61.6132        -1.62132        -5.27032
           26465         63.4391         61.7523        -1.89037        -5.50340
           26466         63.0956         61.5032        -1.75809        -5.39119
           26467         63.4464         61.6544        -2.02222        -5.63958
           26468         63.0885         61.3936        -1.88821        -5.52255
           26469         63.4547         61.5572        -2.14745        -5.78548
           26470         63.0821         61.2843        -2.01188        -5.66390
           26471         63.4641         61.4606        -2.26614        -5.94061
           26472         63.0766         61.1755        -2.12923        -5.81474
           26473         63.4745         61.3646        -2.37835        -6.10445
           26474         63.0722         61.0670        -2.24032        -5.97456
           26475         63.4861         61.2694        -2.48409        -6.27651
           26476         63.0688         60.9590        -2.34519        -6.14286
           26477         63.4990         61.1749        -2.58329        -6.45625
           26478         63.0665         60.8515        -2.44381        -6.31912
           26479         63.5130         61.0811        -2.67587        -6.64314
           26480         63.0652         60.7443        -2.53613        -6.50280
           26481         63.5280         60.9880        -2.76169        -6.83663
           26482         63.0649         60.6376        -2.62203        -6.69336
           26483         63.5441         60.8957        -2.84054        -7.03617
           26484         63.0656         60.5313        -2.70134        -6.89025
           26485         63.5610         60.8041        -2.91221        -7.24116
           26486         63.0671         60.4253        -2.77388        -7.09290
           26487         63.5785         60.7133        -2.97640        -7.45100
           26488         63.0692         60.3199        -2.83937        -7.30070
           26489         63.5964         60.6234        -3.03277        -7.66507
           26490         63.0716         60.2148        -2.89754        -7.51306
           26491         63.6144         60.5342        -3.08096        -7.88272
           26492         63.0742         60.1102        -2.94804        -7.72933
           26493         63.6321         60.4458        -3.12054        -8.10328
           26494         63.0766         60.0060        -2.99047        -7.94884
           26495         63.6491         60.3583        -3.15102        -8.32602
           26496         63.0784         59.9023        -3.02440        -8.17092
           26497         63.6650         60.2717        -3.17187        -8.55021
           26498         63.0792         59.7990        -3.04935        -8.39482
           26499         63.6791         60.1860        -3.18252        -8.77507
           26500         63.0785         59.6963        -3.06476        -8.61979
           26501         63.6908         60.1011        -3.18234        -8.99980
           26502         63.0757         59.5941        -3.07007        -8.84505
           26503         63.6996         60.0172        -3.17063        -9.22353
           26504         63.0701         59.4924        -3.06462        -9.06975
           26505         63.7044         59.9343        -3.14666        -9.44537
           26506         63.0611         59.3913        -3.04773        -9.29301
           26507         63.7047         59.8523        -3.10962        -9.66438
           26508         63.0479         59.2908        -3.01864        -9.51392
           26509         63.6993         59.7713        -3.05867        -9.87958
           26510         63.0295         59.1909        -2.97656        -9.73152
           26511         63.6873         59.6913        -2.99289        -10.0899
           26512         63.0051         59.0917        -2.92063        -9.94478
           26513         63.6676         59.6123        -2.91132        -10.2943
           26514         62.9735         58.9931        -2.84993        -10.1526
           26515         63.6390         59.5342        -2.81293        -10.4916
           26516         62.9337         58.8952        -2.76350        -10.3540
           26517         63.6002         59.4571        -2.69663        -10.6806
           26518         62.8845         58.7980        -2.66031        -10.5476
           26519         63.5498         59.3810        -2.56130        -10.8600
           26520         62.8244         58.7014        -2.53928        -10.7323
           26521         63.4864         59.3057        -2.40573        -11.0286
           26522         62.7522         58.6055        -2.39927        -10.9067
           26523         63.4085         59.2314        -2.22868        -11.1849
           26524         62.6663         58.5102        -2.23910        -11.0696
           26525         63.3144         59.1578        -2.02886        -11.3274
           26526         62.5653         58.4155        -2.05753        -11.2194
           26527         63.2025         59.0849        -1.80493        -11.4547
           26528         62.4475         58.3213        -1.85328        -11.3547
           26529         63.0711         59.0126        -1.55550        -11.5652
           26530         62.3111         58.2277        -1.62502        -11.4739
           26531         62.9185         58.9409        -1.27916        -11.6572
           26532         62.1546         58.1345        -1.37139        -11.5754
           26533         62.7428         58.8696    -974.486E-03        -11.7290
           26534         61.9761         58.0416        -1.09101        -11.6575
           26535         62.5423         58.7986    -640.018E-03        -11.7787
           26536         61.7738         57.9490    -782.467E-03        -11.7184
           26537         62.3152         58.7278    -274.306E-03        -11.8045
           26538         61.5460         57.8565    -444.366E-03        -11.7563
           26539         62.0597         58.6571     124.090E-03        -11.8043
           26540         61.2910         57.7642    -75.3009E-03        -11.7691
           26541         61.7744         58.5863     556.576E-03        -11.7760
           26542         61.0071         57.6718     326.101E-03        -11.7548
           26543         61.4576         58.5154         1.02451        -11.7175
           26544         60.6927         57.5794     761.166E-03        -11.7113
           26545         61.1081         58.4442         1.52919        -11.6263
           26546         60.3464         57.4868         1.23116        -11.6363
           26547         60.7248         58.3728         2.07181        -11.5000
           26548         59.9670         57.3941         1.73725        -11.5275
           26549         60.3067         58.3013         2.65344        -11.3360
           26550         59.5536         57.3013         2.28049        -11.3823
           26551         59.8534         58.2295         3.27503        -11.1314
           26552         59.1055         57.2085         2.86180        -11.1979
           26553         59.3648         58.1578         3.93732        -10.8832
           26554         58.6224         57.1158         3.48190        -10.9715
           26555         58.8414         58.0864         4.64090        -10.5880
           26556         58.1046         57.0235         4.14131        -10.7000
           26557         58.2843         58.0157         5.38610        -10.2421
           26558         57.5529         56.9321         4.84035        -10.3797
           26559         57.6951         57.9462         6.17304        -9.84151
           26560         56.9688         56.8420         5.57904        -10.0071
           26561         57.0767         57.8785         7.00162        -9.38169
           26562         56.3545         56.7540         6.35715        -9.57781
           26563         56.4326         57.8133         7.87148        -8.85756
           26564         55.7135         56.6687         7.17418        -9.08713
           26565         55.7679         57.7517         8.78205        -8.26345
           26566         55.0500         56.5873         8.02936        -8.52976
           26567         55.0892         57.6945         9.73263        -7.59290
           26568         54.3701         56.5108         8.92167        -7.89966
           26569         54.4049         57.6428         10.7224        -6.83862
           26570         53.6814         56.4404         9.84992        -7.19000
           26571         53.7261         57.5977         11.7506        -5.99235
           26572         52.9939         56.3775         10.8128        -6.39301
           26573         53.0666         57.5602         12.8165        -5.04480
           26574         52.3200         56.3233         11.8091        -5.49985
           26575         52.4443         57.5309         13.9197        -3.98548
           26576         51.6759         56.2789         12.8378        -4.50055
           26577         51.8816         57.5104         15.0605        -2.80272
           26578         51.0818         56.2454         13.8980        -3.38388
           26579         51.4070         57.4988         16.2397        -1.48360
           26580         50.5636         56.2232         14.9897        -2.13727
           26581         51.0558         57.4951         17.4591    -13.1234E-03
           26582         50.1535         56.2124         16.1136    -746.921E-03
           26583         56.3671         60.5239         17.3044        -9.34514
           26584         56.2735         60.4421         17.7029        -9.48811
           26585         55.8818         60.1998         18.0640        -9.30756
           26586         56.8688         60.8536         16.5015        -9.35905
           26587         56.7748         60.7733         16.9097        -9.51669
           26588         57.3791         61.1839         15.6638        -9.34354
           26589         57.2881         61.1076         16.0748        -9.51621
           26590         57.8903         61.5095         14.8004        -9.29484
           26591         57.8053         61.4396         15.2077        -9.48173
           26592         58.3946         61.8247         13.9216        -9.21101
           26593         58.3180         61.7632         14.3192        -9.41030
           26594         58.8847         62.1240         13.0378        -9.09200
           26595         58.8182         62.0724         13.4204        -9.30102
           26596         59.3542         62.4026         12.1588        -8.93947
           26597         59.2984         62.3616         12.5223        -9.15496
           26598         59.7979         62.6565         11.2937        -8.75647
           26599         59.7528         62.6261         11.6351        -8.97490
           26600         60.2118         62.8827         10.4502        -8.54713
           26601         60.1766         62.8624         10.7677        -8.76494
           26602         60.5933         63.0793         9.63467        -8.31627
           26603         60.5665         63.0679         9.92738        -8.53008
           26604         60.9410         63.2453         8.85183        -8.06903
           26605         60.9209         63.2414         9.11997        -8.27580
           26606         61.2545         63.3807         8.10512        -7.81058
           26607         61.2390         63.3825         8.34956        -8.00773
           26608         61.5344         63.4865         7.39662        -7.54588
           26609         61.5213         63.4920         7.61879        -7.73132
           26610         61.7817         63.5639         6.72734        -7.27951
           26611         61.7689         63.5712         6.92903        -7.45164
           26612         61.9983         63.6148         6.09732        -7.01558
           26613         61.9838         63.6220         6.28055        -7.17324
           26614         62.1862         63.6413         5.50591        -6.75763
           26615         62.1680         63.6467         5.67278        -6.90011
           26616         62.3476         63.6458         4.95189        -6.50867
           26617         62.3240         63.6477         5.10453        -6.63559
           26618         62.4849         63.6305         4.43367        -6.27119
           26619         62.4544         63.6275         4.57411        -6.38246
           26620         62.6002         63.5976         3.94937        -6.04717
           26621         62.5615         63.5886         4.07955        -6.14294
           26622         62.6960         63.5495         3.49699        -5.83815
           26623         62.6480         63.5334         3.61869        -5.91874
           26624         62.7742         63.4880         3.07443        -5.64529
           26625         62.7160         63.4640         3.18928        -5.71115
           26626         62.8370         63.4152         2.67963        -5.46940
           26627         62.7679         63.3826         2.78908        -5.52106
           26628         62.8861         63.3327         2.31054        -5.31102
           26629         62.8055         63.2910         2.41587        -5.34907
           26630         62.9233         63.2421         1.96519        -5.17045
           26631         62.8307         63.1909         2.06755        -5.19550
           26632         62.9502         63.1447         1.64172        -5.04779
           26633         62.8451         63.0837         1.74209        -5.06048
           26634         62.9680         63.0417         1.33839        -4.94301
           26635         62.8503         62.9706         1.43762        -4.94395
           26636         62.9781         62.9341         1.05356        -4.85592
           26637         62.8476         62.8528         1.15239        -4.84572
           26638         62.9817         62.8229     785.743E-03        -4.78626
           26639         62.8380         62.7312     884.784E-03        -4.76549
           26640         62.9796         62.7087     533.544E-03        -4.73369
           26641         62.8228         62.6067     633.320E-03        -4.70291
           26642         62.9728         62.5922     295.705E-03        -4.69781
           26643         62.8027         62.4798     396.648E-03        -4.65754
           26644         62.9621         62.4740     71.0798E-03        -4.67819
           26645         62.7786         62.3511     173.545E-03        -4.62891
           26646         62.9482         62.3545    -141.371E-03        -4.67435
           26647         62.7512         62.2211    -37.0977E-03        -4.61652
           26648         62.9316         62.2341    -342.583E-03        -4.68581
           26649         62.7212         62.0902    -236.277E-03        -4.61986
           26650         62.9131         62.1130    -533.395E-03        -4.71206
           26651         62.6890         61.9586    -424.887E-03        -4.63839
           26652         62.8929         61.9915    -714.557E-03        -4.75261
           26653         62.6553         61.8265    -603.726E-03        -4.67159
           26654         62.8717         61.8698    -886.733E-03        -4.80694
           26655         62.6203         61.6942    -773.501E-03        -4.71891
           26656         62.8496         61.7481        -1.05051        -4.87453
           26657         62.5844         61.5617    -934.840E-03        -4.77983
           26658         62.8272         61.6263        -1.20640        -4.95489
           26659         62.5481         61.4292        -1.08829        -4.85382
           26660         62.8046         61.5046        -1.35484        -5.04749
           26661         62.5115         61.2967        -1.23433        -4.94034
           26662         62.7821         61.3831        -1.49622        -5.15184
           26663         62.4749         61.1641        -1.37336        -5.03890
           26664         62.7599         61.2618        -1.63085        -5.26744
           26665         62.4385         61.0316        -1.50575        -5.14896
           26666         62.7383         61.1406        -1.75900        -5.39377
           26667         62.4024         60.8991        -1.63176        -5.27001
           26668         62.7173         61.0196        -1.88086        -5.53034
           26669         62.3669         60.7667        -1.75165        -5.40156
           26670         62.6970         60.8988        -1.99660        -5.67665
           26671         62.3320         60.6342        -1.86558        -5.54309
           26672         62.6777         60.7782        -2.10632        -5.83219
           26673         62.2978         60.5016        -1.97369        -5.69410
           26674         62.6592         60.6577        -2.21006        -5.99645
           26675         62.2644         60.3689        -2.07605        -5.85408
           26676         62.6417         60.5374        -2.30784        -6.16892
           26677         62.2317         60.2361        -2.17271        -6.02251
           26678         62.6251         60.4171        -2.39963        -6.34907
           26679         62.1999         60.1030        -2.26365        -6.19887
           26680         62.6094         60.2970        -2.48533        -6.53637
           26681         62.1688         59.9698        -2.34882        -6.38265
           26682         62.5945         60.1769        -2.56482        -6.73028
           26683         62.1385         59.8363        -2.42811        -6.57328
           26684         62.5803         60.0569        -2.63792        -6.93022
           26685         62.1087         59.7025        -2.50139        -6.77024
           26686         62.5667         59.9369        -2.70442        -7.13562
           26687         62.0794         59.5684        -2.56846        -6.97293
           26688         62.5534         59.8169        -2.76406        -7.34588
           26689         62.0504         59.4339        -2.62910        -7.18078
           26690         62.5402         59.6970        -2.81652        -7.56037
           26691         62.0215         59.2991        -2.68303        -7.39319
           26692         62.5269         59.5772        -2.86146        -7.77846
           26693         61.9924         59.1640        -2.72994        -7.60950
           26694         62.5131         59.4573        -2.89848        -7.99946
           26695         61.9629         59.0285        -2.76946        -7.82908
           26696         62.4984         59.3376        -2.92712        -8.22268
           26697         61.9325         58.8927        -2.80119        -8.05122
           26698         62.4823         59.2179        -2.94689        -8.44736
           26699         61.9008         58.7565        -2.82466        -8.27521
           26700         62.4643         59.0984        -2.95726        -8.67274
           26701         61.8675         58.6201        -2.83939        -8.50030
           26702         62.4438         58.9790        -2.95762        -8.89801
           26703         61.8318         58.4833        -2.84481        -8.72569
           26704         62.4202         58.8597        -2.94734        -9.12230
           26705         61.7934         58.3463        -2.84033        -8.95056
           26706         62.3928         58.7407        -2.92570        -9.34473
           26707         61.7513         58.2091        -2.82531        -9.17402
           26708         62.3606         58.6218        -2.89198        -9.56436
           26709         61.7050         58.0717        -2.79904        -9.39516
           26710         62.3229         58.5033        -2.84535        -9.78018
           26711         61.6535         57.9341        -2.76076        -9.61302
           26712         62.2786         58.3850        -2.78496        -9.99116
           26713         61.5960         57.7965        -2.70968        -9.82657
           26714         62.2268         58.2670        -2.70990        -10.1962
           26715         61.5315         57.6588        -2.64493        -10.0347
           26716         62.1661         58.1493        -2.61920        -10.3942
           26717         61.4588         57.5211        -2.56559        -10.2364
           26718         62.0955         58.0321        -2.51183        -10.5838
           26719         61.3769         57.3834        -2.47071        -10.4304
           26720         62.0135         57.9151        -2.38672        -10.7639
           26721         61.2843         57.2458        -2.35926        -10.6154
           26722         61.9187         57.7986        -2.24273        -10.9331
           26723         61.1799         57.1083        -2.23017        -10.7903
           26724         61.8098         57.6824        -2.07869        -11.0900
           26725         61.0621         56.9708        -2.08231        -10.9535
           26726         61.6850         57.5666        -1.89336        -11.2331
           26727         60.9295         56.8335        -1.91451        -11.1037
           26728         61.5428         57.4511        -1.68548        -11.3609
           26729         60.7804         56.6964        -1.72556        -11.2393
           26730         61.3814         57.3359        -1.45374        -11.4718
           26731         60.6132         56.5593        -1.51421        -11.3588
           26732         61.1992         57.2210        -1.19680        -11.5642
           26733         60.4262         56.4224        -1.27916        -11.4606
           26734         60.9944         57.1062    -913.307E-03        -11.6362
           26735         60.2177         56.2856        -1.01911        -11.5429
           26736         60.7651         56.9916    -601.884E-03        -11.6861
           26737         59.9860         56.1488    -732.725E-03        -11.6039
           26738         60.5097         56.8770    -261.170E-03        -11.7119
           26739         59.7292         56.0121    -418.690E-03        -11.6418
           26740         60.2265         56.7625     110.185E-03        -11.7117
           26741         59.4456         55.8753    -75.6875E-03        -11.6546
           26742         59.9138         56.6479     513.483E-03        -11.6834
           26743         59.1336         55.7386     297.563E-03        -11.6403
           26744         59.5702         56.5333     949.973E-03        -11.6247
           26745         58.7917         55.6018     702.285E-03        -11.5968
           26746         59.1944         56.4186         1.42082        -11.5334
           26747         58.4184         55.4651         1.13963        -11.5217
           26748         58.7852         56.3038         1.92707        -11.4070
           26749         58.0126         55.3283         1.61063        -11.4129
           26750         58.3418         56.1892         2.46964        -11.2430
           26751         57.5734         55.1917         2.11620        -11.2677
           26752         57.8640         56.0748         3.04925        -11.0385
           26753         57.1001         55.0555         2.65708        -11.0836
           26754         57.3515         55.9608         3.66642        -10.7907
           26755         56.5925         54.9198         3.23376        -10.8577
           26756         56.8051         55.8478         4.32144        -10.4963
           26757         56.0511         54.7851         3.84654        -10.5871
           26758         56.2259         55.7361         5.01431        -10.1517
           26759         55.4767         54.6518         4.49539        -10.2683
           26760         55.6159         55.6266         5.74472        -9.75312
           26761         54.8710         54.5207         5.17997        -9.89772
           26762         54.9780         55.5200         6.51206        -9.29609
           26763         54.2364         54.3927         5.89961        -9.47137
           26764         54.3161         55.4173         7.31539        -8.77575
           26765         53.5767         54.2686         6.65325        -8.98468
           26766         53.6356         55.3199         8.15344        -8.18653
           26767         52.8964         54.1499         7.43946        -8.43249
           26768         52.9434         55.2289         9.02469        -7.52211
           26769         52.2020         54.0380         8.25645        -7.80894
           26770         52.2484         55.1460         9.92739        -6.77526
           26771         51.5014         53.9345         9.10215        -7.10732
           26772         51.5619         55.0727         10.8597        -5.93772
           26773         50.8051         53.8412         9.97423        -6.31993
           26774         50.8985         55.0105         11.8197        -5.00009
           26775         50.1260         53.7599         10.8703        -5.43791
           26776         50.2764         54.9609         12.8060        -3.95167
           26777         49.4809         53.6925         11.7880        -4.45115
           26778         49.7188         54.9251         13.8172        -2.78041
           26779         48.8906         53.6406         12.7252        -3.34814
           26780         49.2549         54.9036         14.8528        -1.47284
           26781         48.3817         53.6054         13.6803        -2.11588
           26782         48.9211         54.8966         15.9136    -13.2133E-03
           26783         47.9874         53.5878         14.6528    -739.919E-03
           26784         56.6952         60.7059         17.3342        -9.67737
           26785         56.6121         60.6365         17.7481        -9.82073
           26786         56.1931         60.3729         18.1165        -9.63178
           26787         57.2139         61.0452         16.5019        -9.69462
           26788         57.1318         60.9778         16.9264        -9.85537
           26789         57.7399         61.3850         15.6295        -9.67677
           26790         57.6629         61.3225         16.0567        -9.85527
           26791         58.2640         61.7186         14.7287        -9.61957
           26792         58.1955         61.6639         15.1505        -9.81470
           26793         58.7770         62.0393         13.8115        -9.52112
           26794         58.7196         61.9947         14.2211        -9.73049
           26795         59.2705         62.3408         12.8905        -9.38189
           26796         59.2259         62.3077         13.2817        -9.60208
           26797         59.7375         62.6174         11.9773        -9.20437
           26798         59.7061         62.5967         12.3455        -9.43137
           26799         60.1725         62.8648         11.0821        -8.99273
           26800         60.1538         62.8562         11.4243        -9.22227
           26801         60.5717         63.0799         10.2137        -8.75232
           26802         60.5642         63.0824         10.5282        -8.98018
           26803         60.9327         63.2610         9.37879        -8.48913
           26804         60.9346         63.2731         9.66507        -8.71142
           26805         61.2550         63.4075         8.58228        -8.20937
           26806         61.2637         63.4272         8.84104        -8.42273
           26807         61.5387         63.5201         7.82739        -7.91913
           26808         61.5517         63.5451         8.06005        -8.12079
           26809         61.7853         63.6001         7.11582        -7.62407
           26810         61.8000         63.6282         7.32436        -7.81189
           26811         61.9967         63.6496         6.44802        -7.32930
           26812         62.0106         63.6786         6.63477        -7.50173
           26813         62.1755         63.6711         5.82346        -7.03924
           26814         62.1862         63.6988         5.99089        -7.19528
           26815         62.3242         63.6672         5.24085        -6.75764
           26816         62.3298         63.6917         5.39149        -6.89676
           26817         62.4458         63.6407         4.69838        -6.48757
           26818         62.4443         63.6603         4.83467        -6.60961
           26819         62.5429         63.5944         4.19390        -6.23146
           26820         62.5329         63.6077         4.31814        -6.33655
           26821         62.6184         63.5307         3.72504        -5.99120
           26822         62.5986         63.5365         3.83936        -6.07971
           26823         62.6746         63.4523         3.28935        -5.76817
           26824         62.6440         63.4497         3.39568        -5.84061
           26825         62.7140         63.3612         2.88438        -5.56334
           26826         62.6718         63.3494         2.98443        -5.62035
           26827         62.7388         63.2594         2.50773        -5.37734
           26828         62.6843         63.2380         2.60302        -5.41960
           26829         62.7508         63.1489         2.15710        -5.21048
           26830         62.6836         63.1173         2.24895        -5.23873
           26831         62.7519         63.0311         1.83032        -5.06289
           26832         62.6716         62.9891         1.91986        -5.07785
           26833         62.7435         62.9073         1.52536        -4.93448
           26834         62.6500         62.8548         1.61358        -4.93687
           26835         62.7271         62.7788         1.24034        -4.82502
           26836         62.6202         62.7156         1.32807        -4.81554
           26837         62.7040         62.6465     973.522E-03        -4.73420
           26838         62.5834         62.5725         1.06147        -4.71349
           26839         62.6750         62.5113     723.338E-03        -4.66159
           26840         62.5409         62.4266     812.077E-03        -4.63029
           26841         62.6413         62.3737     488.344E-03        -4.60673
           26842         62.4935         62.2783     578.364E-03        -4.56540
           26843         62.6035         62.2345     267.237E-03        -4.56911
           26844         62.4421         62.1284     358.935E-03        -4.51830
           26845         62.5625         62.0940     58.8432E-03        -4.54819
           26846         62.3874         61.9773     152.538E-03        -4.48838
           26847         62.5188         61.9525    -137.895E-03        -4.54341
           26848         62.3301         61.8253    -41.9519E-03        -4.47507
           26849         62.4730         61.8104    -323.925E-03        -4.55422
           26850         62.2707         61.6727    -225.540E-03        -4.47776
           26851         62.4256         61.6679    -500.089E-03        -4.58004
           26852         62.2096         61.5198    -399.123E-03        -4.49586
           26853         62.3769         61.5251    -667.136E-03        -4.62033
           26854         62.1472         61.3665    -563.496E-03        -4.52878
           26855         62.3273         61.3822    -825.731E-03        -4.67451
           26856         62.0839         61.2131    -719.363E-03        -4.57592
           26857         62.2771         61.2391    -976.454E-03        -4.74205
           26858         62.0200         61.0595    -867.341E-03        -4.63672
           26859         62.2266         61.0959        -1.11981        -4.82240
           26860         61.9556         60.9059        -1.00797        -4.71062
           26861         62.1760         60.9527        -1.25625        -4.91502
           26862         61.8911         60.7520        -1.14173        -4.79707
           26863         62.1255         60.8094        -1.38613        -5.01940
           26864         61.8265         60.5979        -1.26901        -4.89552
           26865         62.0752         60.6659        -1.50977        -5.13501
           26866         61.7621         60.4436        -1.39015        -5.00545
           26867         62.0252         60.5222        -1.62744        -5.26133
           26868         61.6979         60.2890        -1.50544        -5.12633
           26869         61.9758         60.3783        -1.73933        -5.39787
           26870         61.6340         60.1339        -1.61512        -5.25764
           26871         61.9269         60.2342        -1.84560        -5.54410
           26872         61.5705         59.9783        -1.71934        -5.39888
           26873         61.8786         60.0896        -1.94635        -5.69953
           26874         61.5074         59.8222        -1.81826        -5.54953
           26875         61.8309         59.9446        -2.04165        -5.86364
           26876         61.4448         59.6653        -1.91194        -5.70909
           26877         61.7838         59.7992        -2.13150        -6.03591
           26878         61.3827         59.5077        -2.00043        -5.87704
           26879         61.7374         59.6532        -2.21588        -6.21583
           26880         61.3209         59.3493        -2.08372        -6.05286
           26881         61.6915         59.5065        -2.29472        -6.40286
           26882         61.2596         59.1899        -2.16177        -6.23604
           26883         61.6460         59.3593        -2.36790        -6.59646
           26884         61.1986         59.0296        -2.23450        -6.42603
           26885         61.6009         59.2114        -2.43526        -6.79608
           26886         61.1377         58.8682        -2.30176        -6.62230
           26887         61.5560         59.0627        -2.49660        -7.00113
           26888         61.0770         58.7057        -2.36339        -6.82428
           26889         61.5110         58.9133        -2.55169        -7.21104
           26890         61.0161         58.5420        -2.41918        -7.03139
           26891         61.4659         58.7631        -2.60023        -7.42518
           26892         60.9549         58.3772        -2.46888        -7.24302
           26893         61.4203         58.6121        -2.64191        -7.64290
           26894         60.8932         58.2112        -2.51220        -7.45857
           26895         61.3738         58.4604        -2.67635        -7.86355
           26896         60.8306         58.0440        -2.54880        -7.67737
           26897         61.3262         58.3079        -2.70314        -8.08642
           26898         60.7669         57.8755        -2.57830        -7.89875
           26899         61.2769         58.1546        -2.72181        -8.31079
           26900         60.7016         57.7059        -2.60029        -8.12199
           26901         61.2255         58.0006        -2.73187        -8.53587
           26902         60.6343         57.5351        -2.61429        -8.34635
           26903         61.1715         57.8459        -2.73275        -8.76087
           26904         60.5646         57.3632        -2.61981        -8.57105
           26905         61.1142         57.6905        -2.72386        -8.98494
           26906         60.4917         57.1901        -2.61627        -8.79525
           26907         61.0529         57.5345        -2.70453        -9.20719
           26908         60.4152         57.0160        -2.60308        -9.01810
           26909         60.9869         57.3780        -2.67408        -9.42666
           26910         60.3342         56.8408        -2.57958        -9.23868
           26911         60.9153         57.2209        -2.63175        -9.64238
           26912         60.2481         56.6647        -2.54506        -9.45602
           26913         60.8372         57.0633        -2.57672        -9.85330
           26914         60.1559         56.4877        -2.49879        -9.66911
           26915         60.7516         56.9054        -2.50815        -10.0583
           26916         60.0567         56.3099        -2.43994        -9.87688
           26917         60.6573         56.7471        -2.42511        -10.2563
           26918         59.9496         56.1314        -2.36766        -10.0782
           26919         60.5532         56.5885        -2.32666        -10.4460
           26920         59.8332         55.9522        -2.28106        -10.2719
           26921         60.4380         56.4297        -2.21176        -10.6262
           26922         59.7066         55.7724        -2.17916        -10.4567
           26923         60.3104         56.2707        -2.07936        -10.7955
           26924         59.5682         55.5921        -2.06095        -10.6314
           26925         60.1688         56.1115        -1.92834        -10.9525
           26926         59.4169         55.4113        -1.92539        -10.7944
           26927         60.0118         55.9522        -1.75753        -11.0957
           26928         59.2511         55.2302        -1.77136        -10.9445
           26929         59.8378         55.7929        -1.56575        -11.2236
           26930         59.0692         55.0487        -1.59772        -11.0801
           26931         59.6451         55.6335        -1.35174        -11.3347
           26932         58.8697         54.8670        -1.40328        -11.1995
           26933         59.4320         55.4740        -1.11425        -11.4271
           26934         58.6509         54.6851        -1.18683        -11.3012
           26935         59.1967         55.3146    -851.992E-03        -11.4992
           26936         58.4111         54.5031    -947.137E-03        -11.3835
           26937         58.9376         55.1551    -563.676E-03        -11.5492
           26938         58.1485         54.3209    -682.944E-03        -11.4445
           26939         58.6529         54.9956    -248.017E-03        -11.5750
           26940         57.8615         54.1386    -393.005E-03        -11.4824
           26941         58.3408         54.8360     96.2451E-03        -11.5748
           26942         57.5483         53.9563    -76.0890E-03        -11.4952
           26943         57.9999         54.6765     470.322E-03        -11.5464
           26944         57.2073         53.7739     269.000E-03        -11.4809
           26945         57.6286         54.5170     875.361E-03        -11.4877
           26946         56.8370         53.5917     643.393E-03        -11.4374
           26947         57.2256         54.3576         1.31241        -11.3965
           26948         56.4359         53.4095         1.04814        -11.3624
           26949         56.7899         54.1984         1.78239        -11.2702
           26950         56.0030         53.2277         1.48416        -11.2538
           26951         56.3208         54.0396         2.28606        -11.1065
           26952         55.5373         53.0462         1.95223        -11.1090
           26953         55.8177         53.8814         2.82396        -10.9026
           26954         55.0382         52.8655         2.45293        -10.9255
           26955         55.2810         53.7242         3.39640        -10.6558
           26956         54.5057         52.6858         2.98658        -10.7006
           26957         54.7112         53.5685         4.00338        -10.3628
           26958         53.9402         52.5076         3.55322        -10.4315
           26959         54.1096         53.4149         4.64458        -10.0203
           26960         53.3428         52.3315         4.15256        -10.1148
           26961         53.4785         53.2642         5.31931        -9.62468
           26962         52.7152         52.1584         4.78390        -9.74726
           26963         52.8209         53.1176         6.02644        -9.17167
           26964         52.0602         51.9892         5.44611        -9.32495
           26965         52.1412         52.9763         6.76445        -8.65661
           26966         51.3817         51.8253         6.13762        -8.84357
           26967         51.4449         52.8418         7.53135        -8.07413
           26968         50.6847         51.6682         6.85632        -8.29821
           26969         50.7395         52.7158         8.32476        -7.41810
           26970         49.9759         51.5196         7.59965        -7.68325
           26971         50.0343         52.6004         9.14196        -6.68144
           26972         49.2639         51.3817         8.36457        -6.99217
           26973         49.3411         52.4976         9.97995        -5.85595
           26974         48.5595         51.2568         9.14768        -6.21741
           26975         48.6751         52.4096         10.8356        -4.93221
           26976         47.8764         51.1472         9.94530        -5.35019
           26977         48.0551         52.3385         11.7060        -3.89935
           26978         47.2318         51.0556         10.7537        -4.38034
           26979         47.5051         52.2863         12.5883        -2.74499
           26980         46.6475         50.9842         11.5692        -3.29614
           26981         47.0552         52.2545         13.4806        -1.45515
           26982         46.1508         50.9353         12.3886        -2.08416
           26983         46.7428         52.2438         14.3818    -13.2474E-03
           26984         45.7761         50.9104         13.2097    -729.307E-03
           26985         57.0660         60.9253         17.3703        -10.0199
           26986         56.9945         60.8701         17.8025        -10.1639
           26987         56.5436         60.5816         18.1799        -9.96508
           26988         57.6050         61.2761         16.5026        -10.0408
           26989         57.5363         61.2235         16.9466        -10.2055
           26990         58.1496         61.6270         15.5892        -10.0196
           26991         58.0885         61.5805         16.0352        -10.2053
           26992         58.6884         61.9698         14.6440        -9.95170
           26993         58.6390         61.9328         15.0827        -10.1568
           26994         59.2107         62.2966         13.6821        -9.83524
           26995         59.1758         62.2717         14.1051        -10.0566
           26996         59.7070         62.5996         12.7183        -9.67146
           26997         59.6879         62.5885         13.1187        -9.90474
           26998         60.1694         62.8727         11.7664        -9.46410
           26999         60.1663         62.8758         12.1391        -9.70429
           27000         60.5924         63.1112         10.8381        -9.21879
           27001         60.6041         63.1278         11.1801        -9.46071
           27002         60.9724         63.3118         9.94300        -8.94241
           27003         60.9968         63.3406         10.2529        -9.18110
           27004         61.3081         63.4734         9.08825        -8.64241
           27005         61.3423         63.5122         9.36610        -8.87345
           27006         61.5994         63.5961         8.27868        -8.32625
           27007         61.6403         63.6423         8.52581        -8.54596
           27008         61.8478         63.6811         7.51707        -8.00103
           27009         61.8923         63.7321         7.73563        -8.20651
           27010         62.0556         63.7309         6.80450        -7.67316
           27011         62.1006         63.7838         6.99715        -7.86231
           27012         62.2259         63.7481         6.14067        -7.34824
           27013         62.2684         63.8005         6.31035        -7.51967
           27014         62.3620         63.7361         5.52426        -7.03096
           27015         62.3994         63.7855         5.67399        -7.18390
           27016         62.4672         63.6981         4.95323        -6.72517
           27017         62.4975         63.7425         5.08596        -6.85936
           27018         62.5451         63.6374         4.42504        -6.43391
           27019         62.5663         63.6751         4.54356        -6.54946
           27020         62.5988         63.5571         3.93691        -6.15947
           27021         62.6095         63.5869         4.04378        -6.25680
           27022         62.6314         63.4603         3.48592        -5.90354
           27023         62.6305         63.4809         3.58344        -5.98328
           27024         62.6459         63.3495         3.06915        -5.66727
           27025         62.6324         63.3601         3.15937        -5.73017
           27026         62.6445         63.2271         2.68376        -5.45137
           27027         62.6179         63.2272         2.76846        -5.49827
           27028         62.6297         63.0953         2.32703        -5.25622
           27029         62.5894         63.0844         2.40777        -5.28798
           27030         62.6035         62.9557         1.99643        -5.08190
           27031         62.5492         62.9337         2.07451        -5.09938
           27032         62.5675         62.8100         1.68956        -4.92829
           27033         62.4991         62.7767         1.76612        -4.93232
           27034         62.5234         62.6595         1.40426        -4.79508
           27035         62.4408         62.6148         1.48024        -4.78648
           27036         62.4724         62.5053         1.13852        -4.68185
           27037         62.3756         62.4493         1.21472        -4.66138
           27038         62.4157         62.3482     890.542E-03        -4.58812
           27039         62.3047         62.2810     967.602E-03        -4.55647
           27040         62.3543         62.1890     658.674E-03        -4.51331
           27041         62.2292         62.1107     737.141E-03        -4.47113
           27042         62.2890         62.0283     441.440E-03        -4.45681
           27043         62.1499         61.9390     521.752E-03        -4.40470
           27044         62.2205         61.8666     237.513E-03        -4.41800
           27045         62.0675         61.7665     320.020E-03        -4.35650
           27046         62.1494         61.7040     45.7041E-03        -4.39624
           27047         61.9826         61.5933     130.682E-03        -4.32584
           27048         62.0763         61.5410    -135.048E-03        -4.39089
           27049         61.8957         61.4198    -47.3889E-03        -4.31205
           27050         62.0016         61.3778    -305.689E-03        -4.40131
           27051         61.8074         61.2461    -215.193E-03        -4.31443
           27052         61.9257         61.2143    -467.055E-03        -4.42688
           27053         61.7178         61.0723    -373.617E-03        -4.33232
           27054         61.8488         61.0506    -619.888E-03        -4.46699
           27055         61.6273         60.8984    -523.444E-03        -4.36509
           27056         61.7712         60.8869    -764.841E-03        -4.52104
           27057         61.5362         60.7244    -665.363E-03        -4.41211
           27058         61.6932         60.7230    -902.482E-03        -4.58845
           27059         61.4446         60.5503    -799.978E-03        -4.47276
           27060         61.6150         60.5588        -1.03331        -4.66863
           27061         61.3526         60.3760    -927.815E-03        -4.54645
           27062         61.5366         60.3944        -1.15775        -4.76106
           27063         61.2605         60.2013        -1.04933        -4.63262
           27064         61.4582         60.2297        -1.27617        -4.86517
           27065         61.1683         60.0262        -1.16491        -4.73070
           27066         61.3800         60.0644        -1.38888        -4.98043
           27067         61.0761         59.8505        -1.27489        -4.84015
           27068         61.3019         59.8986        -1.49612        -5.10634
           27069         60.9839         59.6740        -1.37954        -4.96044
           27070         61.2240         59.7320        -1.59809        -5.24236
           27071         60.8917         59.4967        -1.47909        -5.09106
           27072         61.1463         59.5647        -1.69496        -5.38800
           27073         60.7997         59.3184        -1.57370        -5.23148
           27074         61.0690         59.3964        -1.78681        -5.54274
           27075         60.7077         59.1389        -1.66351        -5.38121
           27076         60.9919         59.2271        -1.87372        -5.70607
           27077         60.6158         58.9581        -1.74859        -5.53972
           27078         60.9150         59.0566        -1.95570        -5.87749
           27079         60.5239         58.7759        -1.82899        -5.70653
           27080         60.8383         58.8848        -2.03274        -6.05648
           27081         60.4320         58.5921        -1.90472        -5.88111
           27082         60.7617         58.7118        -2.10476        -6.24252
           27083         60.3400         58.4067        -1.97572        -6.06295
           27084         60.6851         58.5373        -2.17167        -6.43506
           27085         60.2478         58.2195        -2.04193        -6.25154
           27086         60.6084         58.3613        -2.23332        -6.63356
           27087         60.1554         58.0304        -2.10323        -6.44632
           27088         60.5315         58.1838        -2.28953        -6.83747
           27089         60.0625         57.8394        -2.15946        -6.64675
           27090         60.4541         58.0046        -2.34009        -7.04619
           27091         59.9689         57.6464        -2.21044        -6.85226
           27092         60.3760         57.8239        -2.38473        -7.25911
           27093         59.8746         57.4513        -2.25593        -7.06227
           27094         60.2970         57.6414        -2.42315        -7.47562
           27095         59.7793         57.2541        -2.29567        -7.27616
           27096         60.2169         57.4573        -2.45501        -7.69505
           27097         59.6827         57.0548        -2.32935        -7.49330
           27098         60.1351         57.2715        -2.47992        -7.91671
           27099         59.5844         56.8533        -2.35662        -7.71301
           27100         60.0514         57.0841        -2.49747        -8.13988
           27101         59.4842         56.6497        -2.37710        -7.93460
           27102         59.9653         56.8950        -2.50719        -8.36380
           27103         59.3817         56.4440        -2.39036        -8.15733
           27104         59.8763         56.7044        -2.50855        -8.58768
           27105         59.2763         56.2362        -2.39592        -8.38044
           27106         59.7837         56.5121        -2.50100        -8.81067
           27107         59.1676         56.0264        -2.39328        -8.60310
           27108         59.6871         56.3184        -2.48394        -9.03189
           27109         59.0550         55.8146        -2.38186        -8.82446
           27110         59.5856         56.1233        -2.45671        -9.25040
           27111         58.9378         55.6009        -2.36107        -9.04361
           27112         59.4785         55.9268        -2.41861        -9.46523
           27113         58.8154         55.3853        -2.33026        -9.25961
           27114         59.3648         55.7290        -2.36889        -9.67532
           27115         58.6868         55.1680        -2.28871        -9.47143
           27116         59.2437         55.5301        -2.30675        -9.87959
           27117         58.5512         54.9491        -2.23570        -9.67803
           27118         59.1141         55.3300        -2.23133        -10.0769
           27119         58.4077         54.7287        -2.17041        -9.87828
           27120         58.9749         55.1290        -2.14173        -10.2660
           27121         58.2553         54.5068        -2.09200        -10.0710
           27122         58.8248         54.9271        -2.03700        -10.4456
           27123         58.0926         54.2837        -1.99957        -10.2549
           27124         58.6625         54.7244        -1.91614        -10.6145
           27125         57.9186         54.0594        -1.89218        -10.4288
           27126         58.4867         54.5210        -1.77810        -10.7711
           27127         57.7320         53.8341        -1.76884        -10.5912
           27128         58.2959         54.3170        -1.62178        -10.9140
           27129         57.5312         53.6079        -1.62852        -10.7406
           27130         58.0884         54.1125        -1.44606        -11.0417
           27131         57.3149         53.3808        -1.47013        -10.8757
           27132         57.8628         53.9077        -1.24978        -11.1526
           27133         57.0814         53.1532        -1.29256        -10.9947
           27134         57.6174         53.7024        -1.03172        -11.2448
           27135         56.8292         52.9249        -1.09467        -11.0961
           27136         57.3503         53.4969    -790.701E-03        -11.3168
           27137         56.5566         52.6963    -875.289E-03        -11.1782
           27138         57.0600         53.2913    -525.488E-03        -11.3667
           27139         56.2618         52.4674    -633.247E-03        -11.2390
           27140         56.7447         53.0855    -234.881E-03        -11.3925
           27141         55.9433         52.2382    -367.366E-03        -11.2768
           27142         56.4028         52.8797     82.3050E-03        -11.3922
           27143         55.5993         52.0090    -76.4913E-03        -11.2895
           27144         56.0326         52.6740     427.195E-03        -11.3639
           27145         55.2282         51.7798     240.495E-03        -11.2753
           27146         55.6327         52.4685     800.847E-03        -11.3054
           27147         54.8285         51.5509     584.642E-03        -11.2319
           27148         55.2019         52.2632         1.20421        -11.2144
           27149         54.3988         51.3222     956.909E-03        -11.1573
           27150         54.7390         52.0585         1.63809        -11.0886
           27151         53.9380         51.0941         1.35812        -11.0491
           27152         54.2435         51.8545         2.10310        -10.9255
           27153         53.4452         50.8667         1.78894        -10.9051
           27154         53.7149         51.6515         2.59965        -10.7227
           27155         52.9199         50.6405         2.24981        -10.7227
           27156         53.1534         51.4500         3.12784        -10.4773
           27157         52.3620         50.4157         2.74089        -10.4993
           27158         52.5598         51.2506         3.68743        -10.1864
           27159         51.7721         50.1931         3.26203        -10.2322
           27160         51.9356         51.0541         4.27781        -9.84687
           27161         51.1513         49.9733         3.81266        -9.91844
           27162         51.2831         50.8614         4.89789        -9.45515
           27163         50.5017         49.7572         4.39177        -9.55474
           27164         50.6058         50.6738         5.54609        -9.00734
           27165         49.8261         49.5460         4.99784        -9.13751
           27166         49.9082         50.4927         6.22029        -8.49900
           27167         49.1288         49.3412         5.62874        -8.66273
           27168         49.1963         50.3200         6.91779        -7.92506
           27169         48.4151         49.1446         6.28174        -8.12580
           27170         48.4780         50.1579         7.63534        -7.27963
           27171         47.6923         48.9583         6.95347        -7.52139
           27172         47.7632         50.0087         8.36917        -6.55588
           27173         46.9693         48.7849         7.63993        -6.84329
           27174         47.0642         49.8752         9.11505        -5.74578
           27175         46.2576         48.6271         8.33652        -6.08419
           27176         46.3969         49.7601         9.86848        -4.83995
           27177         45.5715         48.4880         9.03823        -5.23547
           27178         45.7809         49.6664         10.6249        -3.82747
           27179         44.9291         48.3709         9.73972        -4.28700
           27180         45.2410         49.5969         11.3799        -2.69566
           27181         44.3530         48.2791         10.4357        -3.22692
           27182         44.8083         49.5540         12.1297        -1.43004
           27183         43.8715         48.2155         11.1210        -2.04143
           27184         44.5217         49.5394         12.8714    -13.2145E-03
           27185         43.5203         48.1829         11.7915    -714.818E-03
           27186         57.4861         61.1884         17.4136        -10.3749
           27187         57.4278         61.1498         17.8676        -10.5198
           27188         56.9395         60.8320         18.2560        -10.3093
           27189         58.0495         61.5530         16.5035        -10.3996
           27190         57.9962         61.5177         16.9706        -10.5691
           27191         58.6159         61.9169         15.5408        -10.3738
           27192         58.5733         61.8892         16.0091        -10.5682
           27193         59.1715         62.2702         14.5431        -10.2921
           27194         59.1444         62.2542         15.0012        -10.5092
           27195         59.7034         62.6032         13.5288        -10.1532
           27196         59.6949         62.6017         13.9668        -10.3888
           27197         60.2009         62.9068         12.5159        -9.95938
           27198         60.2120         62.9215         12.9259        -10.2080
           27199         60.6555         63.1740         11.5205        -9.71618
           27200         60.6857         63.2051         11.8971        -9.97139
           27201         61.0619         63.3998         10.5561        -9.43115
           27202         61.1090         63.4461         10.8964        -9.68672
           27203         61.4172         63.5815         9.63302        -9.11312
           27204         61.4780         63.6408         9.93613        -9.36325
           27205         61.7209         63.7185         8.75865        -8.77131
           27206         61.7918         63.7879         9.02548        -9.01103
           27207         61.9746         63.8117         7.93741        -8.41462
           27208         62.0516         63.8879         8.17016        -8.64000
           27209         62.1810         63.8637         7.17138        -8.05124
           27210         62.2600         63.9434         7.37308        -8.25935
           27211         62.3438         63.8778         6.46069        -7.68829
           27212         62.4213         63.9577         6.63485        -7.87720
           27213         62.4670         63.8577         5.80405        -7.33179
           27214         62.5397         63.9350         5.95433        -7.50040
           27215         62.5550         63.8075         5.19914        -6.98662
           27216         62.6203         63.8797         5.32914        -7.13449
           27217         62.6120         63.7313         4.64298        -6.65658
           27218         62.6676         63.7963         4.75611        -6.78382
           27219         62.6421         63.6329         4.13222        -6.34455
           27220         62.6863         63.6891         4.23161        -6.45165
           27221         62.6490         63.5159         3.66337        -6.05256
           27222         62.6804         63.5619         3.75179        -6.14028
           27223         62.6362         63.3834         3.23291        -5.78200
           27224         62.6537         63.4184         3.31282        -5.85126
           27225         62.6065         63.2384         2.83743        -5.53370
           27226         62.6096         63.2617         2.91096        -5.58551
           27227         62.5628         63.0833         2.47370        -5.30804
           27228         62.5509         63.0945         2.54266        -5.34345
           27229         62.5072         62.9202         2.13871        -5.10508
           27230         62.4801         62.9192         2.20464        -5.12512
           27231         62.4418         62.7510         1.82966        -4.92460
           27232         62.3995         62.7376         1.89386        -4.93028
           27233         62.3683         62.5770         1.54402        -4.76622
           27234         62.3108         62.5514         1.60756        -4.75848
           27235         62.2881         62.3996         1.27946        -4.62939
           27236         62.2155         62.3618         1.34324        -4.60911
           27237         62.2024         62.2197         1.03390        -4.51348
           27238         62.1149         62.1700         1.09865        -4.48148
           27239         62.1123         62.0380     805.476E-03        -4.41781
           27240         62.0101         61.9767     871.780E-03        -4.37482
           27241         62.0187         61.8552     592.501E-03        -4.34166
           27242         61.9020         61.7825     660.839E-03        -4.28833
           27243         61.9222         61.6718     393.477E-03        -4.28426
           27244         61.7912         61.5879     464.230E-03        -4.22121
           27245         61.8234         61.4880     207.071E-03        -4.24489
           27246         61.6784         61.3933     280.532E-03        -4.17265
           27247         61.7229         61.3040     32.0969E-03        -4.22281
           27248         61.5639         61.1987     108.490E-03        -4.14185
           27249         61.6209         61.1201    -132.497E-03        -4.21728
           27250         61.4482         61.0043    -53.0072E-03        -4.12804
           27251         61.5179         60.9362    -287.642E-03        -4.22762
           27252         61.3316         60.8102    -204.942E-03        -4.13047
           27253         61.4140         60.7523    -434.158E-03        -4.25313
           27254         61.2143         60.6163    -348.179E-03        -4.14841
           27255         61.3095         60.5685    -572.767E-03        -4.29315
           27256         61.0964         60.4225    -483.477E-03        -4.18118
           27257         61.2046         60.3846    -704.103E-03        -4.34706
           27258         60.9781         60.2287    -611.504E-03        -4.22810
           27259         61.0993         60.2004    -828.718E-03        -4.41424
           27260         60.8595         60.0347    -732.839E-03        -4.28853
           27261         60.9938         60.0159    -947.090E-03        -4.49409
           27262         60.7405         59.8404    -847.989E-03        -4.36187
           27263         60.8881         59.8309        -1.05963        -4.58606
           27264         60.6214         59.6456    -957.388E-03        -4.44753
           27265         60.7822         59.6452        -1.16669        -4.68957
           27266         60.5020         59.4500        -1.06141        -4.54493
           27267         60.6763         59.4587        -1.26857        -4.80411
           27268         60.3824         59.2534        -1.16037        -4.65353
           27269         60.5702         59.2711        -1.36550        -4.92913
           27270         60.2626         59.0557        -1.25452        -4.77279
           27271         60.4640         59.0823        -1.45768        -5.06413
           27272         60.1424         58.8566        -1.34408        -4.90220
           27273         60.3577         58.8921        -1.54525        -5.20860
           27274         60.0220         58.6560        -1.42922        -5.04124
           27275         60.2513         58.7003        -1.62832        -5.36203
           27276         59.9012         58.4535        -1.51006        -5.18941
           27277         60.1446         58.5069        -1.70695        -5.52392
           27278         59.7800         58.2491        -1.58668        -5.34622
           27279         60.0377         58.3115        -1.78116        -5.69377
           27280         59.6582         58.0425        -1.65912        -5.51116
           27281         59.9305         58.1142        -1.85094        -5.87108
           27282         59.5359         57.8336        -1.72738        -5.68374
           27283         59.8228         57.9147        -1.91623        -6.05533
           27284         59.4130         57.6222        -1.79144        -5.86346
           27285         59.7146         57.7130        -1.97694        -6.24600
           27286         59.2892         57.4082        -1.85123        -6.04979
           27287         59.6057         57.5089        -2.03294        -6.44255
           27288         59.1645         57.1915        -1.90665        -6.24222
           27289         59.4960         57.3024        -2.08407        -6.64443
           27290         59.0388         56.9719        -1.95755        -6.44022
           27291         59.3853         57.0933        -2.13013        -6.85107
           27292         58.9119         56.7494        -2.00376        -6.64323
           27293         59.2734         56.8817        -2.17089        -7.06188
           27294         58.7836         56.5238        -2.04509        -6.85067
           27295         59.1601         56.6675        -2.20606        -7.27625
           27296         58.6537         56.2952        -2.08127        -7.06196
           27297         59.0451         56.4507        -2.23534        -7.49352
           27298         58.5219         56.0634        -2.11204        -7.27647
           27299         58.9280         56.2312        -2.25837        -7.71304
           27300         58.3880         55.8285        -2.13708        -7.49355
           27301         58.8085         56.0090        -2.27477        -7.93408
           27302         58.2517         55.5905        -2.15604        -7.71252
           27303         58.6863         55.7843        -2.28411        -8.15590
           27304         58.1125         55.3494        -2.16851        -7.93265
           27305         58.5608         55.5570        -2.28590        -8.37773
           27306         57.9701         55.1051        -2.17408        -8.15320
           27307         58.4315         55.3272        -2.27965        -8.59873
           27308         57.8240         54.8579        -2.17227        -8.37336
           27309         58.2978         55.0950        -2.26478        -8.81802
           27310         57.6736         54.6076        -2.16256        -8.59229
           27311         58.1592         54.8604        -2.24070        -9.03470
           27312         57.5185         54.3545        -2.14440        -8.80911
           27313         58.0147         54.6236        -2.20675        -9.24777
           27314         57.3578         54.0987        -2.11719        -9.02286
           27315         57.8638         54.3846        -2.16225        -9.45622
           27316         57.1910         53.8401        -2.08028        -9.23256
           27317         57.7053         54.1436        -2.10644        -9.65896
           27318         57.0172         53.5791        -2.03298        -9.43714
           27319         57.5385         53.9008        -2.03853        -9.85484
           27320         56.8354         53.3157        -1.97456        -9.63552
           27321         57.3622         53.6562        -1.95769        -10.0426
           27322         56.6448         53.0501        -1.90423        -9.82649
           27323         57.1753         53.4100        -1.86303        -10.2211
           27324         56.4443         52.7824        -1.82115        -10.0088
           27325         56.9765         53.1623        -1.75361        -10.3889
           27326         56.2326         52.5129        -1.72445        -10.1813
           27327         56.7646         52.9134        -1.62845        -10.5446
           27328         56.0087         52.2417        -1.61321        -10.3424
           27329         56.5381         52.6634        -1.48653        -10.6868
           27330         55.7710         51.9690        -1.48646        -10.4907
           27331         56.2955         52.4125        -1.32679        -10.8138
           27332         55.5183         51.6951        -1.34320        -10.6249
           27333         56.0353         52.1607        -1.14814        -10.9241
           27334         55.2491         51.4200        -1.18238        -10.7431
           27335         55.7558         51.9083    -949.450E-03        -11.0159
           27336         54.9617         51.1441        -1.00292        -10.8439
           27337         55.4555         51.6555    -729.585E-03        -11.0876
           27338         54.6546         50.8675    -803.747E-03        -10.9254
           27339         55.1326         51.4023    -487.401E-03        -11.1373
           27340         54.3262         50.5904    -583.741E-03        -10.9859
           27341         54.7855         51.1490    -221.766E-03        -11.1630
           27342         53.9747         50.3130    -341.803E-03        -11.0235
           27343         54.4124         50.8956     68.4309E-03        -11.1628
           27344         53.5986         50.0356    -76.8484E-03        -11.0363
           27345         54.0119         50.6424     384.240E-03        -11.1347
           27346         53.1962         49.7582     212.170E-03        -11.0222
           27347         53.5826         50.3896     726.638E-03        -11.0765
           27348         52.7661         49.4812     526.228E-03        -10.9792
           27349         53.1231         50.1374         1.09649        -10.9860
           27350         52.3069         49.2048     866.210E-03        -10.9052
           27351         52.6324         49.8860         1.49451        -10.8610
           27352         51.8175         48.9293         1.23286        -10.7978
           27353         52.1099         49.6357         1.92120        -10.6990
           27354         51.2970         48.6549         1.62675        -10.6549
           27355         51.5552         49.3869         2.37684        -10.4977
           27356         50.7449         48.3822         2.04821        -10.4741
           27357         50.9686         49.1403         2.86135        -10.2544
           27358         50.1613         48.1115         2.49728        -10.2528
           27359         50.3510         48.8963         3.37432        -9.96628
           27360         49.5467         47.8435         2.97362        -9.98841
           27361         49.7040         48.6560         3.91484        -9.63044
           27362         48.9024         47.5790         3.47647        -9.67825
           27363         49.0301         48.4203         4.48150        -9.24359
           27364         48.2306         47.3191         4.00454        -9.31927
           27365         48.3329         48.1908         5.07228        -8.80211
           27366         47.5344         47.0651         4.55592        -8.90816
           27367         47.6175         47.9690         5.68449        -8.30190
           27368         46.8183         46.8186         5.12801        -8.44124
           27369         46.8902         47.7572         6.31473        -7.73821
           27370         46.0882         46.5817         5.71745        -7.91426
           27371         46.1594         47.5578         6.95885        -7.10554
           27372         45.3515         46.3567         6.32008        -7.32230
           27373         45.4355         47.3737         7.61198        -6.39737
           27374         44.6179         46.1466         6.93088        -6.65955
           27375         44.7316         47.2082         8.26862        -5.60596
           27376         43.8996         45.9548         7.54407        -5.91907
           27377         44.0643         47.0648         8.92274        -4.72212
           27378         43.2117         45.7850         8.15313        -5.09252
           27379         43.4541         46.9474         9.56802        -3.73492
           27380         42.5730         45.6413         8.75104        -4.16995
           27381         42.9268         46.8596         10.1982        -2.63154
           27382         42.0073         45.5278         9.33053        -3.13946
           27383         42.5148         46.8048         10.8073        -1.39700
           27384         41.5440         45.4488         9.88444        -1.98698
           27385         42.2583         46.7861         11.3903    -13.0961E-03
           27386         41.2201         45.4079         10.4062    -696.196E-03
           27387         57.9640         61.5029         17.4651        -10.7447
           27388         57.9205         61.4838         17.9451        -10.8908
           27389         57.3880         61.1312         18.3469        -10.6665
           27390         58.5567         61.8840         16.5036        -10.7734
           27391         58.5209         61.8690         16.9983        -10.9491
           27392         59.1485         62.2632         15.4818        -10.7409
           27393         59.1278         62.2579         15.9764        -10.9462
           27394         59.7228         62.6283         14.4215        -10.6414
           27395         59.7224         62.6373         14.9021        -10.8733
           27396         60.2641         62.9673         13.3459        -10.4742
           27397         60.2871         62.9939         13.8006        -10.7270
           27398         60.7601         63.2695         12.2767        -10.2434
           27399         60.8072         63.3153         12.6966        -10.5098
           27400         61.2023         63.5272         11.2329        -9.95695
           27401         61.2717         63.5917         11.6123        -10.2291
           27402         61.5856         63.7354         10.2297        -9.62498
           27403         61.6739         63.8167         10.5660        -9.89534
           27404         61.9085         63.8921         9.27809        -9.25880
           27405         62.0113         63.9868         9.57149        -9.52061
           27406         62.1723         63.9977         8.38525        -8.86971
           27407         62.2846         64.1020         8.63774        -9.11752
           27408         62.3801         64.0546         7.55482        -8.46824
           27409         62.4969         64.1644         7.76980        -8.69797
           27410         62.5366         64.0667         6.78772        -8.06366
           27411         62.6531         64.1780         6.96936        -8.27254
           27412         62.6468         64.0387         6.08279        -7.66375
           27413         62.7591         64.1478         6.23558        -7.85018
           27414         62.7163         63.9755         5.43741        -7.27481
           27415         62.8208         64.0792         5.56580        -7.43813
           27416         62.7505         63.8821         4.84804        -6.90168
           27417         62.8443         63.9779         4.95626        -7.04197
           27418         62.7544         63.7633         4.31062        -6.54799
           27419         62.8355         63.8492         4.40251        -6.66581
           27420         62.7327         63.6236         3.82087        -6.21625
           27421         62.7994         63.6979         3.89985        -6.31255
           27422         62.6896         63.4669         3.37451        -5.90812
           27423         62.7408         63.5286         3.44356        -5.98405
           27424         62.6286         63.2966         2.96742        -5.62454
           27425         62.6636         63.3451         3.02909        -5.68136
           27426         62.5530         63.1157         2.59570        -5.36592
           27427         62.5714         63.1505         2.65215        -5.40492
           27428         62.4654         62.9266         2.25574        -5.13223
           27429         62.4671         62.9478         2.30877        -5.15467
           27430         62.3681         62.7316         1.94426        -4.92317
           27431         62.3531         62.7391         1.99535        -4.93025
           27432         62.2630         62.5322         1.65825        -4.73817
           27433         62.2315         62.5262         1.70864        -4.73102
           27434         62.1517         62.3299         1.39503        -4.57654
           27435         62.1040         62.3107         1.44572        -4.55620
           27436         62.0356         62.1256         1.15219        -4.43749
           27437         61.9720         62.0937         1.20398        -4.40490
           27438         61.9156         61.9203     927.586E-03        -4.32017
           27439         61.8364         61.8760     981.131E-03        -4.27616
           27440         61.7926         61.7146     719.310E-03        -4.22368
           27441         61.6983         61.6582     775.120E-03        -4.16902
           27442         61.6674         61.5088     525.673E-03        -4.14715
           27443         61.5583         61.4408     584.148E-03        -4.08250
           27444         61.5404         61.3033     345.180E-03        -4.08970
           27445         61.4169         61.2241     406.628E-03        -4.01563
           27446         61.4122         61.0982     176.508E-03        -4.05046
           27447         61.2745         61.0082     241.161E-03        -3.96750
           27448         61.2829         60.8936     18.4948E-03        -4.02860
           27449         61.1315         60.7931     86.5179E-03        -3.93720
           27450         61.1530         60.6896    -129.888E-03        -4.02333
           27451         60.9879         60.5789    -58.3810E-03        -3.92388
           27452         61.0224         60.4859    -269.543E-03        -4.03387
           27453         60.8441         60.3653    -194.484E-03        -3.92672
           27454         60.8915         60.2826    -401.261E-03        -4.05950
           27455         60.6999         60.1522    -322.621E-03        -3.94495
           27456         60.7602         60.0793    -525.738E-03        -4.09952
           27457         60.5556         59.9394    -443.518E-03        -3.97784
           27458         60.6286         59.8760    -643.579E-03        -4.15326
           27459         60.4110         59.7266    -557.809E-03        -4.02468
           27460         60.4968         59.6724    -755.310E-03        -4.22009
           27461         60.2662         59.5136    -666.045E-03        -4.08482
           27462         60.3646         59.4682    -861.386E-03        -4.29941
           27463         60.1211         59.3002    -768.702E-03        -4.15762
           27464         60.2322         59.2633    -962.197E-03        -4.39063
           27465         59.9756         59.0859    -866.191E-03        -4.24250
           27466         60.0994         59.0573        -1.05808        -4.49318
           27467         59.8297         58.8706    -958.861E-03        -4.33887
           27468         59.9662         58.8501        -1.14930        -4.60654
           27469         59.6833         58.6539        -1.04701        -4.44619
           27470         59.8326         58.6413        -1.23610        -4.73018
           27471         59.5363         58.4356        -1.13088        -4.56393
           27472         59.6984         58.4307        -1.31866        -4.86359
           27473         59.3885         58.2153        -1.21067        -4.69156
           27474         59.5636         58.2181        -1.39711        -5.00626
           27475         59.2400         57.9928        -1.28654        -4.82860
           27476         59.4282         58.0033        -1.47155        -5.15770
           27477         59.0906         57.7679        -1.35860        -4.97454
           27478         59.2920         57.7860        -1.54206        -5.31743
           27479         58.9401         57.5402        -1.42693        -5.12891
           27480         59.1549         57.5661        -1.60864        -5.48495
           27481         58.7885         57.3096        -1.49157        -5.29121
           27482         59.0169         57.3434        -1.67129        -5.65976
           27483         58.6357         57.0759        -1.55254        -5.46096
           27484         58.8778         57.1176        -1.72996        -5.84138
           27485         58.4815         56.8388        -1.60979        -5.63768
           27486         58.7375         56.8887        -1.78457        -6.02929
           27487         58.3258         56.5981        -1.66329        -5.82087
           27488         58.5959         56.6566        -1.83501        -6.22297
           27489         58.1685         56.3538        -1.71293        -6.01003
           27490         58.4528         56.4210        -1.88113        -6.42189
           27491         58.0094         56.1056        -1.75859        -6.20463
           27492         58.3080         56.1819        -1.92276        -6.62550
           27493         57.8484         55.8535        -1.80012        -6.40415
           27494         58.1614         55.9393        -1.95967        -6.83322
           27495         57.6853         55.5974        -1.83733        -6.60804
           27496         58.0127         55.6930        -1.99161        -7.04445
           27497         57.5199         55.3371        -1.87000        -6.81571
           27498         57.8616         55.4431        -2.01832        -7.25858
           27499         57.3519         55.0726        -1.89788        -7.02656
           27500         57.7080         55.1894        -2.03946        -7.47494
           27501         57.1811         54.8040        -1.92069        -7.23997
           27502         57.5515         54.9322        -2.05468        -7.69285
           27503         57.0072         54.5311        -1.93810        -7.45527
           27504         57.3916         54.6712        -2.06360        -7.91157
           27505         56.8300         54.2540        -1.94976        -7.67176
           27506         57.2281         54.4067        -2.06577        -8.13035
           27507         56.6490         53.9728        -1.95528        -7.88872
           27508         57.0604         54.1386        -2.06073        -8.34837
           27509         56.4638         53.6874        -1.95423        -8.10535
           27510         56.8880         53.8671        -2.04797        -8.56477
           27511         56.2740         53.3980        -1.94614        -8.32084
           27512         56.7103         53.5922        -2.02694        -8.77866
           27513         56.0791         53.1047        -1.93051        -8.53432
           27514         56.5267         53.3141        -1.99704        -8.98907
           27515         55.8784         52.8077        -1.90678        -8.74486
           27516         56.3364         53.0330        -1.95762        -9.19498
           27517         55.6713         52.5069        -1.87437        -8.95149
           27518         56.1386         52.7489        -1.90801        -9.39534
           27519         55.4571         52.2027        -1.83265        -9.15317
           27520         55.9325         52.4621        -1.84748        -9.58899
           27521         55.2350         51.8952        -1.78093        -9.34881
           27522         55.7171         52.1727        -1.77525        -9.77475
           27523         55.0041         51.5847        -1.71850        -9.53724
           27524         55.4913         51.8810        -1.69050        -9.95135
           27525         54.7635         51.2712        -1.64460        -9.71725
           27526         55.2540         51.5871        -1.59236        -10.1175
           27527         54.5120         50.9552        -1.55840        -9.88755
           27528         55.0039         51.2914        -1.47992        -10.2717
           27529         54.2486         50.6368        -1.45907        -10.0468
           27530         54.7396         50.9939        -1.35224        -10.4125
           27531         53.9719         50.3163        -1.34570        -10.1935
           27532         54.4599         50.6951        -1.20832        -10.5385
           27533         53.6807         49.9939        -1.21736        -10.3261
           27534         54.1632         50.3950        -1.04714        -10.6479
           27535         53.3737         49.6701        -1.07308        -10.4432
           27536         53.8480         50.0940    -867.650E-03        -10.7391
           27537         53.0492         49.3449    -911.865E-03        -10.5430
           27538         53.5127         49.7923    -668.786E-03        -10.8102
           27539         52.7058         49.0188    -732.689E-03        -10.6239
           27540         53.1556         49.4902    -449.474E-03        -10.8596
           27541         52.3419         48.6921    -534.520E-03        -10.6839
           27542         52.7751         49.1878    -208.649E-03        -10.8853
           27543         51.9558         48.3650    -316.321E-03        -10.7213
           27544         52.3697         48.8855     54.7282E-03        -10.8852
           27545         51.5461         48.0378    -77.0773E-03        -10.7342
           27546         51.9378         48.5835     341.641E-03        -10.8574
           27547         51.1112         47.7109     184.193E-03        -10.7204
           27548         51.4779         48.2822     653.000E-03        -10.7998
           27549         50.6495         47.3845     468.404E-03        -10.6780
           27550         50.9889         47.9817     989.596E-03        -10.7102
           27551         50.1598         47.0590     776.375E-03        -10.6048
           27552         50.4697         47.6824         1.35207        -10.5864
           27553         49.6410         46.7349         1.10879        -10.4987
           27554         49.9196         47.3848         1.74084        -10.4260
           27555         49.0922         46.4124         1.46614        -10.3575
           27556         49.3385         47.0893         2.15608        -10.2267
           27557         48.5129         46.0920         1.84869        -10.1787
           27558         48.7265         46.7965         2.59759        -9.98612
           27559         47.9032         45.7744         2.25637        -9.96010
           27560         48.0847         46.5072         3.06479        -9.70152
           27561         47.2637         45.4603         2.68873        -9.69921
           27562         47.4147         46.2222         3.55655        -9.37021
           27563         46.5958         45.1504         3.14484        -9.39347
           27564         46.7194         45.9429         4.07118        -8.98919
           27565         45.9019         44.8460         3.62316        -9.04010
           27566         46.0025         45.6707         4.60626        -8.55516
           27567         45.1851         44.5485         4.12149        -8.63615
           27568         45.2694         45.4075         5.15857        -8.06441
           27569         44.4504         44.2596         4.63679        -8.17829
           27570         44.5269         45.1557         5.72404        -7.51263
           27571         43.7039         43.9815         5.16512        -7.66273
           27572         43.7839         44.9180         6.29762        -6.89477
           27573         42.9538         43.7171         5.70155        -7.08504
           27574         43.0515         44.6980         6.87335        -6.20476
           27575         42.2102         43.4695         6.24006        -6.43991
           27576         42.3435         44.4994         7.44434        -5.43530
           27577         41.4860         43.2426         6.77360        -5.72091
           27578         41.6775         44.3266         8.00290        -4.57749
           27579         40.7972         43.0410         7.29409        -4.92018
           27580         41.0749         44.1842         8.54080        -3.62061
           27581         40.1638         42.8695         7.79265        -4.02804
           27582         40.5627         44.0770         9.04955        -2.55171
           27583         39.6105         42.7334         8.25984        -3.03276
           27584         40.1747         44.0097         9.52092        -1.35549
           27585         39.1682         42.6379         8.68606        -1.92007
           27586         39.9527         43.9865         9.94724    -12.8899E-03
           27587         38.8754         42.5882         9.06218    -673.136E-03
           27588         58.5101         61.8786         17.5259        -11.1324
           27589         58.4836         61.8826         18.0372        -11.2801
           27590         57.8985         61.4884         18.4555        -11.0393
           27591         59.1378         62.2794         16.5020        -11.1649
           27592         59.1227         62.2887         17.0299        -11.3484
           27593         59.7594         62.6766         15.4085        -11.1229
           27594         59.7647         62.6980         15.9343        -11.3419
           27595         60.3540         63.0546         14.2735        -11.0000
           27596         60.3858         63.0938         14.7799        -11.2500
           27597         60.9033         63.3985         13.1259        -10.7968
           27598         60.9646         63.4593         13.5988        -11.0701
           27599         61.3936         63.6962         11.9925        -10.5201
           27600         61.4839         63.7795         12.4217        -10.8072
           27601         61.8162         63.9391         10.8954        -10.1812
           27602         61.9323         64.0437         11.2754        -10.4723
           27603         62.1676         64.1226         9.85139        -9.79367
           27604         62.3043         64.2452         10.1806        -10.0796
           27605         62.4483         64.2461         8.87187        -9.37199
           27606         62.5994         64.3820         9.15160        -9.64513
           27607         62.6618         64.3116         7.96311        -8.92984
           27608         62.8208         64.4558         8.19708        -9.18434
           27609         62.8138         64.3236         7.12739        -8.47944
           27610         62.9745         64.4709         7.32056        -8.71131
           27611         62.9109         64.2877         6.36393        -8.03108
           27612         63.0680         64.4334         6.52184        -8.23796
           27613         62.9603         64.2102         5.66979        -7.59302
           27614         63.1091         64.3502         5.79805        -7.77388
           27615         62.9689         64.0974         5.04072        -7.17155
           27616         63.1059         64.2284         5.14463        -7.32639
           27617         62.9431         63.9553         4.47169        -6.77128
           27618         63.0656         64.0748         4.55609        -6.90081
           27619         62.8889         63.7895         3.95742        -6.39536
           27620         62.9950         63.8956         4.02655        -6.50078
           27621         62.8115         63.6048         3.49261        -6.04579
           27622         62.8998         63.6964         3.55014        -6.12856
           27623         62.7152         63.4056         3.07218        -5.72365
           27624         62.7850         63.4819         3.12120        -5.78534
           27625         62.6039         63.1954         2.69141        -5.42931
           27626         62.6549         63.2560         2.73449        -5.47155
           27627         62.4808         62.9772         2.34594        -5.16264
           27628         62.5130         63.0221         2.38520        -5.18699
           27629         62.3485         62.7535         2.03183        -4.92315
           27630         62.3620         62.7829         2.06899        -4.93109
           27631         62.2091         62.5260         1.74553        -4.71009
           27632         62.2044         62.5404         1.78200        -4.70296
           27633         62.0643         62.2965         1.48392        -4.52253
           27634         62.0419         62.2964         1.52081        -4.50157
           27635         61.9156         62.0661         1.24419        -4.35946
           27636         61.8760         62.0519         1.28239        -4.32576
           27637         61.7640         61.8355         1.02388        -4.21981
           27638         61.7079         61.8079         1.06409        -4.17434
           27639         61.6104         61.6055     820.839E-03        -4.10249
           27640         61.5383         61.5651     863.597E-03        -4.04611
           27641         61.4554         61.3765     633.145E-03        -4.00644
           27642         61.3679         61.3239     678.870E-03        -3.93990
           27643         61.2996         61.1486     459.132E-03        -3.93061
           27644         61.1971         61.0843     508.135E-03        -3.85454
           27645         61.1432         60.9221     297.333E-03        -3.87398
           27646         61.0263         60.8466     349.844E-03        -3.78894
           27647         60.9866         60.6968     146.462E-03        -3.83560
           27648         60.8557         60.6106     202.640E-03        -3.74207
           27649         60.8298         60.4726     5.39397E-03        -3.81455
           27650         60.6853         60.3762     65.3441E-03        -3.71294
           27651         60.6730         60.2495    -126.857E-03        -3.80995
           27652         60.5152         60.1432    -63.0762E-03        -3.70061
           27653         60.5161         60.0271    -251.152E-03        -3.82100
           27654         60.3454         59.9113    -183.520E-03        -3.70423
           27655         60.3591         59.8053    -368.245E-03        -3.84693
           27656         60.1757         59.6802    -296.771E-03        -3.72297
           27657         60.2021         59.5836    -478.789E-03        -3.88699
           27658         60.0060         59.4495    -403.511E-03        -3.75608
           27659         60.0449         59.3619    -583.357E-03        -3.94051
           27660         59.8363         59.2189    -504.332E-03        -3.80282
           27661         59.8874         59.1397    -682.441E-03        -4.00685
           27662         59.6664         58.9880    -599.748E-03        -3.86254
           27663         59.7295         58.9168    -776.468E-03        -4.08537
           27664         59.4961         58.7564    -690.202E-03        -3.93458
           27665         59.5711         58.6928    -865.801E-03        -4.17550
           27666         59.3252         58.5237    -776.073E-03        -4.01836
           27667         59.4120         58.4673    -950.751E-03        -4.27668
           27668         59.1536         58.2895    -857.686E-03        -4.11330
           27669         59.2522         58.2401        -1.03157        -4.38837
           27670         58.9811         58.0535    -935.312E-03        -4.21886
           27671         59.0915         58.0108        -1.10849        -4.51007
           27672         58.8076         57.8153        -1.00918        -4.33451
           27673         58.9297         57.7790        -1.18165        -4.64125
           27674         58.6328         57.5745        -1.07946        -4.45975
           27675         58.7668         57.5446        -1.25121        -4.78145
           27676         58.4566         57.3308        -1.14632        -4.59410
           27677         58.6026         57.3072        -1.31724        -4.93017
           27678         58.2789         57.0840        -1.20985        -4.73707
           27679         58.4369         57.0666        -1.37981        -5.08694
           27680         58.0994         56.8336        -1.27012        -4.88820
           27681         58.2697         56.8224        -1.43895        -5.25129
           27682         57.9180         56.5794        -1.32719        -5.04702
           27683         58.1007         56.5746        -1.49464        -5.42274
           27684         57.7346         56.3212        -1.38105        -5.21306
           27685         57.9300         56.3228        -1.54684        -5.60081
           27686         57.5491         56.0586        -1.43168        -5.38586
           27687         57.7572         56.0669        -1.59549        -5.78501
           27688         57.3612         55.7916        -1.47904        -5.56494
           27689         57.5824         55.8067        -1.64049        -5.97484
           27690         57.1709         55.5198        -1.52305        -5.74982
           27691         57.4052         55.5421        -1.68170        -6.16980
           27692         56.9779         55.2432        -1.56359        -5.94000
           27693         57.2256         55.2729        -1.71896        -6.36934
           27694         56.7821         54.9615        -1.60053        -6.13498
           27695         57.0434         54.9991        -1.75208        -6.57292
           27696         56.5834         54.6747        -1.63370        -6.33422
           27697         56.8583         54.7206        -1.78084        -6.77997
           27698         56.3815         54.3826        -1.66291        -6.53718
           27699         56.6702         54.4373        -1.80499        -6.98987
           27700         56.1762         54.0852        -1.68794        -6.74327
           27701         56.4787         54.1492        -1.82423        -7.20199
           27702         55.9674         53.7825        -1.70852        -6.95189
           27703         56.2837         53.8563        -1.83825        -7.41568
           27704         55.7547         53.4744        -1.72438        -7.16240
           27705         56.0848         53.5586        -1.84670        -7.63022
           27706         55.5380         53.1609        -1.73519        -7.37414
           27707         55.8816         53.2562        -1.84919        -7.84488
           27708         55.3168         52.8421        -1.74060        -7.58638
           27709         55.6737         52.9492        -1.84528        -8.05885
           27710         55.0909         52.5180        -1.74023        -7.79838
           27711         55.4607         52.6376        -1.83452        -8.27132
           27712         54.8598         52.1887        -1.73365        -8.00933
           27713         55.2421         52.3216        -1.81641        -8.48140
           27714         54.6231         51.8545        -1.72042        -8.21840
           27715         55.0173         52.0013        -1.79041        -8.68815
           27716         54.3803         51.5153        -1.70003        -8.42468
           27717         54.7856         51.6770        -1.75592        -8.89057
           27718         54.1308         51.1714        -1.67195        -8.62723
           27719         54.5463         51.3487        -1.71234        -9.08762
           27720         53.8741         50.8229        -1.63561        -8.82502
           27721         54.2987         51.0168        -1.65899        -9.27818
           27722         53.6093         50.4702        -1.59039        -9.01699
           27723         54.0419         50.6814        -1.59516        -9.46107
           27724         53.3358         50.1135        -1.53564        -9.20200
           27725         53.7749         50.3429        -1.52011        -9.63504
           27726         53.0527         49.7530        -1.47067        -9.37885
           27727         53.4967         50.0014        -1.43302        -9.79877
           27728         52.7589         49.3891        -1.39472        -9.54626
           27729         53.2061         49.6574        -1.33308        -9.95087
           27730         52.4536         49.0220        -1.30703        -9.70288
           27731         52.9019         49.3111        -1.21939        -10.0899
           27732         52.1355         48.6522        -1.20676        -9.84730
           27733         52.5829         48.9628        -1.09104        -10.2143
           27734         51.8035         48.2799        -1.09306        -9.97803
           27735         52.2476         48.6129    -947.085E-03        -10.3224
           27736         51.4563         47.9057    -965.041E-03        -10.0935
           27737         51.8945         48.2617    -786.549E-03        -10.4126
           27738         51.0925         47.5297    -821.768E-03        -10.1920
           27739         51.5222         47.9096    -608.436E-03        -10.4832
           27740         50.7106         47.1525    -662.296E-03        -10.2719
           27741         51.1292         47.5569    -411.743E-03        -10.5322
           27742         50.3092         46.7744    -485.660E-03        -10.3314
           27743         50.7137         47.2040    -195.473E-03        -10.5578
           27744         49.8868         46.3960    -290.897E-03        -10.3686
           27745         50.2744         46.8512     41.3475E-03        -10.5580
           27746         49.4418         46.0175    -77.0535E-03        -10.3816
           27747         49.8097         46.4990     299.643E-03        -10.5308
           27748         48.9727         45.6394     156.790E-03        -10.3683
           27749         49.3182         46.1477     580.262E-03        -10.4741
           27750         48.4782         45.2622     411.492E-03        -10.3268
           27751         48.7987         45.7976     883.943E-03        -10.3857
           27752         47.9569         44.8862     687.818E-03        -10.2550
           27753         48.2502         45.4493         1.21126        -10.2636
           27754         47.4078         44.5121     986.403E-03        -10.1506
           27755         47.6721         45.1033         1.56259        -10.1054
           27756         46.8299         44.1403         1.30770        -10.0115
           27757         47.0641         44.7600         1.93802        -9.90887
           27758         46.2230         43.7713         1.65190        -9.83557
           27759         46.4265         44.4202         2.33727        -9.67167
           27760         45.5869         43.4058         2.01890        -9.62044
           27761         45.7603         44.0847         2.75964        -9.39138
           27762         44.9224         43.0446         2.40815        -9.36383
           27763         45.0675         43.7544         3.20385        -9.06547
           27764         44.2310         42.6887         2.81862        -9.06338
           27765         44.3508         43.4307         3.66796        -8.69125
           27766         43.5150         42.3392         3.24861        -8.71660
           27767         43.6144         43.1153         4.14923        -8.26580
           27768         42.7780         41.9976         3.69565        -8.32087
           27769         42.8639         42.8100         4.64399        -7.78581
           27770         42.0250         41.6657         4.15638        -7.87329
           27771         42.1065         42.5175         5.14751        -7.24752
           27772         41.2625         41.3461         4.62633        -7.37056
           27773         41.3518         42.2410         5.65392        -6.64643
           27774         40.4993         41.0415         5.09983        -6.80886
           27775         40.6114         41.9842         6.15612        -5.97706
           27776         39.7462         40.7558         5.56993        -6.18351
           27777         39.9002         41.7515         6.64579        -5.23269
           27778         39.0168         40.4931         6.02827        -5.48875
           27779         39.2366         41.5482         7.11347        -4.40494
           27780         38.3281         40.2587         6.46514        -4.71735
           27781         38.6432         41.3797         7.54882        -3.48340
           27782         37.7012         40.0584         6.86963        -3.86017
           27783         38.1485         41.2522         7.94087        -2.45525
           27784         37.1622         39.8985         7.22986        -2.90578
           27785         37.7875         41.1715         8.27865        -1.30491
           27786         36.7435         39.7857         7.53348        -1.83992
           27787         37.6042         41.1434         8.55143    -12.5645E-03
           27788         36.4854         39.7265         7.76828    -645.335E-03
           27789         59.1373         62.3276         17.5975        -11.5416
           27790         59.1308         62.3593         18.1467        -11.6916
           27791         58.4823         61.9151         18.5853        -11.4310
           27792         59.8073         62.7523         16.4968        -11.5777
           27793         59.8169         62.7908         17.0647        -11.7712
           27794         60.4635         63.1704         15.3157        -11.5219
           27795         60.5005         63.2244         15.8785        -11.7581
           27796         61.0795         63.5620         14.0909        -11.3677
           27797         61.1510         63.6385         14.6268        -11.6401
           27798         61.6337         63.9087         12.8591        -11.1180
           27799         61.7420         64.0115         13.3512        -11.4161
           27800         62.1111         64.1965         11.6529        -10.7839
           27801         62.2541         64.3259         12.0901        -11.0950
           27802         62.5041         64.4165         10.4981        -10.3812
           27803         62.6763         64.5696         10.8753        -10.6930
           27804         62.8115         64.5656         9.41269        -9.92817
           27805         63.0050         64.7372         9.72997        -10.2299
           27806         63.0369         64.6449         8.40756        -9.44294
           27807         63.2434         64.8287         8.66843        -9.72606
           27808         63.1873         64.6594         7.48736        -8.94191
           27809         63.3985         64.8487         7.69764        -9.20053
           27810         63.2715         64.6159         6.65210        -8.43894
           27811         63.4800         64.8045         6.81873        -8.66952
           27812         63.2986         64.5223         5.89859        -7.94510
           27813         63.4985         64.7049         6.02872        -8.14603
           27814         63.2778         64.3869         5.22163        -7.46873
           27815         63.4644         64.5592         5.32207        -7.63989
           27816         63.2177         64.2174         4.61492        -7.01582
           27817         63.3874         64.3760         4.69183        -7.15809
           27818         63.1259         64.0209         4.07177        -6.59034
           27819         63.2762         64.1636         4.13054        -6.70527
           27820         63.0087         63.8035         3.58554        -6.19471
           27821         63.1383         63.9289         3.63072        -6.28420
           27822         62.8719         63.5706         3.14990        -5.83015
           27823         62.9799         63.6778         3.18528        -5.89625
           27824         62.7200         63.3265         2.75899        -5.49696
           27825         62.8063         63.4153         2.78767        -5.54172
           27826         62.5567         63.0749         2.40751        -5.19484
           27827         62.6214         63.1454         2.43200        -5.22021
           27828         62.3852         62.8185         2.09070        -4.92302
           27829         62.4288         62.8713         2.11300        -4.93082
           27830         62.2078         62.5597         1.80435        -4.68044
           27831         62.2309         62.5953         1.82605        -4.67233
           27832         62.0264         62.3000         1.54476        -4.46589
           27833         62.0299         62.3192         1.56711        -4.44334
           27834         61.8424         62.0408         1.30869        -4.27806
           27835         61.8272         62.0444         1.33265        -4.24236
           27836         61.6571         61.7830         1.09331        -4.11559
           27837         61.6239         61.7719         1.11962        -4.06787
           27838         61.4711         61.5271     896.149E-03        -3.97714
           27839         61.4208         61.5021     925.374E-03        -3.91837
           27840         61.2852         61.2735     715.062E-03        -3.86141
           27841         61.2185         61.2355     747.621E-03        -3.79242
           27842         61.0996         61.0224     548.182E-03        -3.76714
           27843         61.0174         60.9720     584.382E-03        -3.68864
           27844         60.9145         60.7737     393.887E-03        -3.69314
           27845         60.8175         60.7118     433.942E-03        -3.60573
           27846         60.7302         60.5274     250.766E-03        -3.63828
           27847         60.6190         60.4545     294.818E-03        -3.54246
           27848         60.5467         60.2832     117.592E-03        -3.60151
           27849         60.4217         60.2000     165.725E-03        -3.49770
           27850         60.3638         60.0408    -6.70400E-03        -3.58184
           27851         60.2257         59.9477     45.5505E-03        -3.47039
           27852         60.1815         59.7999    -123.049E-03        -3.57834
           27853         60.0306         59.6975    -66.6705E-03        -3.45956
           27854         59.9997         59.5601    -232.252E-03        -3.59018
           27855         59.8364         59.4487    -171.775E-03        -3.46428
           27856         59.8181         59.3210    -335.014E-03        -3.61653
           27857         59.6426         59.2009    -270.489E-03        -3.48372
           27858         59.6366         59.0822    -431.943E-03        -3.65665
           27859         59.4492         58.9537    -363.440E-03        -3.51710
           27860         59.4550         58.8432    -523.567E-03        -3.70985
           27861         59.2557         58.7065    -451.172E-03        -3.56368
           27862         59.2730         58.6036    -610.341E-03        -3.77548
           27863         59.0620         58.4588    -534.155E-03        -3.62279
           27864         59.0904         58.3630    -692.657E-03        -3.85290
           27865         58.8677         58.2102    -612.791E-03        -3.69379
           27866         58.9070         58.1208    -770.849E-03        -3.94156
           27867         58.6725         57.9601    -687.427E-03        -3.77610
           27868         58.7226         57.8768    -845.198E-03        -4.04089
           27869         58.4762         57.7081    -758.356E-03        -3.86914
           27870         58.5369         57.6304    -915.943E-03        -4.15036
           27871         58.2786         57.4537    -825.825E-03        -3.97239
           27872         58.3497         57.3813    -983.276E-03        -4.26949
           27873         58.0793         57.1965    -890.037E-03        -4.08534
           27874         58.1610         57.1292        -1.04735        -4.39777
           27875         57.8782         56.9360    -951.159E-03        -4.20750
           27876         57.9703         56.8736        -1.10829        -4.53474
           27877         57.6749         56.6719        -1.00932        -4.33840
           27878         57.7776         56.6142        -1.16618        -4.67993
           27879         57.4693         56.4038        -1.06462        -4.47759
           27880         57.5827         56.3507        -1.22107        -4.83289
           27881         57.2611         56.1313        -1.11712        -4.62462
           27882         57.3854         56.0828        -1.27299        -4.99317
           27883         57.0502         55.8541        -1.16687        -4.77904
           27884         57.1856         55.8102        -1.32193        -5.16030
           27885         56.8364         55.5718        -1.21387        -4.94041
           27886         56.9830         55.5327        -1.36786        -5.33384
           27887         56.6195         55.2842        -1.25810        -5.10828
           27888         56.7775         55.2500        -1.41071        -5.51332
           27889         56.3992         54.9911        -1.29952        -5.28222
           27890         56.5690         54.9620        -1.45040        -5.69825
           27891         56.1755         54.6921        -1.33806        -5.46175
           27892         56.3572         54.6684        -1.48682        -5.88816
           27893         55.9482         54.3872        -1.37363        -5.64641
           27894         56.1421         54.3691        -1.51981        -6.08254
           27895         55.7171         54.0760        -1.40610        -5.83571
           27896         55.9234         54.0641        -1.54922        -6.28086
           27897         55.4820         53.7585        -1.43533        -6.02916
           27898         55.7010         53.7531        -1.57485        -6.48256
           27899         55.2428         53.4346        -1.46115        -6.22623
           27900         55.4747         53.4362        -1.59646        -6.68709
           27901         54.9992         53.1041        -1.48337        -6.42637
           27902         55.2442         53.1133        -1.61381        -6.89382
           27903         54.7512         52.7670        -1.50174        -6.62901
           27904         55.0093         52.7844        -1.62661        -7.10212
           27905         54.4984         52.4233        -1.51603        -6.83353
           27906         54.7697         52.4495        -1.63454        -7.31131
           27907         54.2406         52.0730        -1.52595        -7.03929
           27908         54.5252         52.1087        -1.63726        -7.52068
           27909         53.9776         51.7161        -1.53119        -7.24561
           27910         54.2753         51.7620        -1.63438        -7.72947
           27911         53.7092         51.3527        -1.53140        -7.45178
           27912         54.0198         51.4096        -1.62550        -7.93688
           27913         53.4349         50.9829        -1.52622        -7.65701
           27914         53.7582         51.0517        -1.61016        -8.14204
           27915         53.1544         50.6068        -1.51523        -7.86051
           27916         53.4900         50.6883        -1.58788        -8.34404
           27917         52.8673         50.2247        -1.49800        -8.06139
           27918         53.2146         50.3197        -1.55813        -8.54193
           27919         52.5732         49.8366        -1.47405        -8.25875
           27920         52.9315         49.9461        -1.52035        -8.73468
           27921         52.2715         49.4429        -1.44286        -8.45159
           27922         52.6400         49.5679        -1.47394        -8.92119
           27923         51.9616         49.0438        -1.40389        -8.63888
           27924         52.3393         49.1853        -1.41825        -9.10031
           27925         51.6429         48.6396        -1.35654        -8.81949
           27926         52.0286         48.7985        -1.35261        -9.27081
           27927         51.3146         48.2308        -1.30019        -8.99227
           27928         51.7069         48.4081        -1.27629        -9.43141
           27929         50.9759         47.8175        -1.23417        -9.15596
           27930         51.3733         48.0143        -1.18852        -9.58072
           27931         50.6260         47.4003        -1.15777        -9.30924
           27932         51.0267         47.6175        -1.08850        -9.71730
           27933         50.2638         46.9796        -1.07025        -9.45071
           27934         50.6658         47.2182    -975.389E-03        -9.83963
           27935         49.8883         46.5557    -970.819E-03        -9.57890
           27936         50.2894         46.8168    -848.317E-03        -9.94611
           27937         49.4983         46.1293    -858.661E-03        -9.69226
           27938         49.8962         46.4137    -706.383E-03        -10.0351
           27939         49.0926         45.7008    -732.930E-03        -9.78916
           27940         49.4847         46.0095    -548.664E-03        -10.1047
           27941         48.6698         45.2707    -592.751E-03        -9.86789
           27942         49.0535         45.6045    -374.230E-03        -10.1533
           27943         48.2286         44.8395    -437.234E-03        -9.92666
           27944         48.6012         45.1993    -182.149E-03        -10.1789
           27945         47.7676         44.4079    -265.483E-03        -9.96363
           27946         48.1262         44.7944     28.4897E-03        -10.1795
           27947         47.2853         43.9763    -76.6100E-03        -9.97687
           27948         47.6272         44.3903     258.552E-03        -10.1532
           27949         46.7804         43.5453     130.246E-03        -9.96440
           27950         47.1027         43.9874     508.838E-03        -10.0978
           27951         46.2515         43.1156     355.890E-03        -9.92418
           27952         46.5517         43.5864     780.039E-03        -10.0113
           27953         45.6973         42.6876     601.048E-03        -9.85412
           27954         45.9731         43.1877         1.07270        -9.89143
           27955         45.1168         42.2620     866.316E-03        -9.75210
           27956         45.3662         42.7920         1.38714        -9.73610
           27957         44.5092         41.8395         1.15212        -9.61600
           27958         44.7310         42.3999         1.72342        -9.54310
           27959         43.8740         41.4206         1.45863        -9.44363
           27960         44.0676         42.0122         2.08122        -9.31019
           27961         43.2113         41.0063         1.78572        -9.23286
           27962         43.3772         41.6297         2.45977        -9.03513
           27963         42.5218         40.5972         2.13281        -8.98149
           27964         42.6616         41.2535         2.85770        -8.71562
           27965         41.8069         40.1945         2.49881        -8.68737
           27966         41.9239         40.8850         3.27290        -8.34927
           27967         41.0692         39.7994         2.88194        -8.34827
           27968         41.1683         40.5258         3.70239        -7.93354
           27969         40.3123         39.4133         3.27958        -7.96191
           27970         40.4008         40.1781         4.14213        -7.46563
           27971         39.5415         39.0383         3.68809        -7.52584
           27972         39.6291         39.8447         4.58685        -6.94234
           27973         38.7637         38.6768         4.10259        -7.03736
           27974         38.8631         39.5287         5.02986        -6.35986
           27975         37.9880         38.3319         4.51681        -6.49329
           27976         38.1154         39.2345         5.46299        -5.71347
           27977         37.2259         38.0075         4.92285        -5.88975
           27978         37.4018         38.9671         5.87645        -4.99720
           27979         36.4921         37.7085         5.31112        -5.22183
           27980         36.7416         38.7323         6.25893        -4.20340
           27981         35.8044         37.4407         5.67020        -4.48313
           27982         36.1589         38.5367         6.59773        -3.32223
           27983         35.1852         37.2106         5.98701        -3.66532
           27984         35.6835         38.3878         6.87912        -2.34120
           27985         34.6621         37.0260         6.24699        -2.75753
           27986         35.3524         38.2930         7.08895        -1.24465
           27987         34.2693         36.8950         6.43461        -1.74574
           27988         35.2118         38.2598         7.21289    -12.1047E-03
           27989         34.0491         36.8259         6.53409    -612.452E-03
           27990         59.8627         62.8657         17.6812        -11.9772
           27991         59.8798         62.9311         18.2769        -12.1300
           27992         59.1544         62.4258         18.7409        -11.8456
           27993         60.5839         63.3192         16.4850        -12.0158
           27994         60.6237         63.3936         17.1019        -12.2223
           27995         61.2798         63.7616         15.1960        -11.9399
           27996         61.3564         63.8562         15.8028        -12.1981
           27997         61.9171         64.1667         13.8628        -11.7432
           27998         62.0385         64.2898         14.4320        -12.0435
           27999         62.4700         64.5119         12.5325        -11.4330
           28000         62.6372         64.6673         13.0439        -11.7607
           28001         62.9234         64.7813         11.2448        -11.0264
           28002         63.1315         64.9676         11.6869        -11.3648
           28003         63.2721         64.9667         10.0292        -10.5461
           28004         63.5118         65.1787         10.3984        -10.8798
           28005         63.5190         65.0675         8.90399        -10.0162
           28006         63.7793         65.2973         9.20289        -10.3326
           28007         63.6725         65.0883         7.87824        -9.45900
           28008         63.9422         65.3274         8.11350        -9.74916
           28009         63.7441         65.0377         6.95366        -8.89377
           28010         64.0130         65.2776         7.13400        -9.15222
           28011         63.7462         64.9260         6.12691        -8.33569
           28012         64.0060         65.1594         6.26164        -8.55988
           28013         63.6912         64.7637         5.39157        -7.79608
           28014         63.9355         64.9850         5.48961        -7.98566
           28015         63.5904         64.5612         4.73958        -7.28285
           28016         63.8146         64.7659         4.80897        -7.43895
           28017         63.4538         64.3277         4.16230        -6.80112
           28018         63.6549         64.5129         4.20997        -6.92579
           28019         63.2898         64.0710         3.65122        -6.35383
           28020         63.4660         64.2351         3.68293        -6.44959
           28021         63.1054         63.7979         3.19830        -5.94230
           28022         63.2559         63.9400         3.21877        -6.01185
           28023         62.9062         63.5138         2.79620        -5.56670
           28024         63.0310         63.6339         2.80920        -5.61269
           28025         62.6968         63.2230         2.43835        -5.22640
           28026         62.7964         63.3215         2.44687        -5.25133
           28027         62.4806         62.9290         2.11899        -4.92025
           28028         62.5559         63.0066         2.12534        -4.92639
           28029         62.2605         62.6342         1.83305        -4.64677
           28030         62.3125         62.6920         1.83904        -4.63615
           28031         62.0385         62.3406         1.57615        -4.40432
           28032         62.0683         62.3796         1.58316        -4.37872
           28033         61.8160         62.0494         1.34451        -4.19119
           28034         61.8249         62.0708         1.35357        -4.15213
           28035         61.5941         61.7616         1.13487        -4.00566
           28036         61.5834         61.7666         1.14675        -3.95446
           28037         61.3736         61.4777     944.419E-03        -3.84605
           28038         61.3444         61.4675     959.680E-03        -3.78382
           28039         61.1549         61.1980     770.740E-03        -3.71077
           28040         61.1083         61.1736     789.795E-03        -3.63843
           28041         60.9383         60.9223     611.760E-03        -3.59830
           28042         60.8754         60.8848     634.889E-03        -3.51664
           28043         60.7239         60.6508     465.689E-03        -3.50723
           28044         60.6455         60.6011     493.077E-03        -3.41687
           28045         60.5116         60.3830     330.986E-03        -3.43623
           28046         60.4186         60.3220     362.742E-03        -3.33771
           28047         60.3012         60.1186     206.324E-03        -3.38408
           28048         60.1945         60.0470     242.501E-03        -3.27784
           28049         60.0926         59.8571     90.5534E-03        -3.34966
           28050         59.9727         59.7757     131.161E-03        -3.23603
           28051         59.8855         59.5981    -17.3149E-03        -3.33193
           28052         59.7530         59.5074     27.6961E-03        -3.21118
           28053         59.6795         59.3410    -118.139E-03        -3.32992
           28054         59.5350         59.2416    -68.7758E-03        -3.20228
           28055         59.4744         59.0853    -212.660E-03        -3.34276
           28056         59.3182         58.9776    -159.017E-03        -3.20840
           28057         59.2698         58.8304    -301.520E-03        -3.36963
           28058         59.1022         58.7148    -243.685E-03        -3.22866
           28059         59.0654         58.5758    -385.272E-03        -3.40977
           28060         58.8866         58.4526    -323.345E-03        -3.26230
           28061         58.8608         58.3209    -464.394E-03        -3.46249
           28062         58.6710         58.1902    -398.487E-03        -3.30859
           28063         58.6557         58.0651    -539.297E-03        -3.52714
           28064         58.4550         57.9272    -469.531E-03        -3.36684
           28065         58.4496         57.8079    -610.335E-03        -3.60311
           28066         58.2381         57.6629    -536.836E-03        -3.43645
           28067         58.2424         57.5488    -677.808E-03        -3.68982
           28068         58.0200         57.3967    -600.710E-03        -3.51683
           28069         58.0336         57.2873    -741.968E-03        -3.78676
           28070         57.8003         57.1280    -661.415E-03        -3.60744
           28071         57.8231         57.0228    -803.029E-03        -3.89340
           28072         57.5786         56.8563    -719.167E-03        -3.70776
           28073         57.6104         56.7549    -861.163E-03        -4.00926
           28074         57.3545         56.5811    -774.150E-03        -3.81731
           28075         57.3953         56.4831    -916.510E-03        -4.13388
           28076         57.1279         56.3019    -826.509E-03        -3.93563
           28077         57.1775         56.2071    -969.175E-03        -4.26680
           28078         56.8983         56.0183    -876.359E-03        -4.06227
           28079         56.9569         55.9264        -1.01924        -4.40759
           28080         56.6654         55.7297    -923.787E-03        -4.19680
           28081         56.7331         55.6406        -1.06675        -4.55582
           28082         56.4291         55.4357    -968.853E-03        -4.33879
           28083         56.5059         55.3495        -1.11172        -4.71104
           28084         56.1890         55.1361        -1.01159        -4.48782
           28085         56.2752         55.0527        -1.15416        -4.87285
           28086         55.9450         54.8304        -1.05201        -4.64348
           28087         56.0408         54.7498        -1.19403        -5.04079
           28088         55.6967         54.5182        -1.09009        -4.80536
           28089         55.8024         54.4406        -1.23129        -5.21445
           28090         55.4441         54.1993        -1.12580        -4.97302
           28091         55.5598         54.1250        -1.26586        -5.39336
           28092         55.1868         53.8735        -1.15909        -5.14605
           28093         55.3130         53.8026        -1.29763        -5.57706
           28094         54.9248         53.5405        -1.18986        -5.32400
           28095         55.0618         53.4734        -1.32648        -5.76508
           28096         54.6578         53.2000        -1.21801        -5.50643
           28097         54.8059         53.1371        -1.35227        -5.95693
           28098         54.3858         52.8519        -1.24342        -5.69285
           28099         54.5452         52.7936        -1.37483        -6.15208
           28100         54.1084         52.4961        -1.26594        -5.88277
           28101         54.2795         52.4429        -1.39394        -6.34998
           28102         53.8255         52.1324        -1.28540        -6.07568
           28103         54.0087         52.0849        -1.40940        -6.55007
           28104         53.5371         51.7608        -1.30159        -6.27104
           28105         53.7326         51.7196        -1.42095        -6.75173
           28106         53.2429         51.3812        -1.31431        -6.46827
           28107         53.4508         51.3471        -1.42831        -6.95432
           28108         52.9426         50.9937        -1.32330        -6.66676
           28109         53.1632         50.9673        -1.43118        -7.15716
           28110         52.6362         50.5982        -1.32830        -6.86587
           28111         52.8696         50.5803        -1.42922        -7.35952
           28112         52.3234         50.1949        -1.32899        -7.06491
           28113         52.5695         50.1864        -1.42207        -7.56064
           28114         52.0039         49.7838        -1.32506        -7.26315
           28115         52.2627         49.7856        -1.40933        -7.75968
           28116         51.6776         49.3652        -1.31616        -7.45981
           28117         51.9489         49.3782        -1.39056        -7.95578
           28118         51.3439         48.9391        -1.30188        -7.65406
           28119         51.6274         48.9643        -1.36531        -8.14799
           28120         51.0027         48.5059        -1.28181        -7.84502
           28121         51.2979         48.5444        -1.33307        -8.33534
           28122         50.6534         48.0658        -1.25551        -8.03174
           28123         50.9599         48.1186        -1.29330        -8.51676
           28124         50.2957         47.6191        -1.22247        -8.21322
           28125         50.6126         47.6873        -1.24544        -8.69113
           28126         49.9290         47.1663        -1.18219        -8.38839
           28127         50.2553         47.2510        -1.18886        -8.85725
           28128         49.5527         46.7076        -1.13409        -8.55610
           28129         49.8874         46.8100        -1.12292        -9.01386
           28130         49.1662         46.2435        -1.07760        -8.71515
           28131         49.5079         46.3648        -1.04693        -9.15962
           28132         48.7687         45.7745        -1.01206        -8.86424
           28133         49.1158         45.9159    -960.157E-03        -9.29310
           28134         48.3593         45.3012    -936.827E-03        -9.00201
           28135         48.7103         45.4638    -861.848E-03        -9.41282
           28136         47.9372         44.8240    -851.181E-03        -9.12702
           28137         48.2900         45.0091    -751.206E-03        -9.51719
           28138         47.5014         44.3436    -754.388E-03        -9.23775
           28139         47.8539         44.5523    -627.406E-03        -9.60455
           28140         47.0509         43.8606    -645.679E-03        -9.33258
           28141         47.4007         44.0941    -489.604E-03        -9.67317
           28142         46.5843         43.3757    -524.258E-03        -9.40985
           28143         46.9290         43.6349    -336.941E-03        -9.72125
           28144         46.1006         42.8894    -389.310E-03        -9.46777
           28145         46.4375         43.1756    -168.553E-03        -9.74689
           28146         45.5985         42.4026    -240.012E-03        -9.50451
           28147         45.9248         42.7166     16.4069E-03        -9.74814
           28148         45.0766         41.9159    -75.5398E-03        -9.51817
           28149         45.3896         42.2588     218.751E-03        -9.72301
           28150         44.5337         41.4301     104.907E-03        -9.50677
           28151         44.8306         41.8026     439.234E-03        -9.66943
           28152         43.9685         40.9459     302.086E-03        -9.46828
           28153         44.2467         41.3489     678.510E-03        -9.58530
           28154         43.3798         40.4640     516.684E-03        -9.40063
           28155         43.6370         40.8983     937.095E-03        -9.46851
           28156         42.7667         39.9853     749.272E-03        -9.30172
           28157         43.0007         40.4516         1.21530        -9.31692
           28158         42.1283         39.5105         1.00026        -9.16945
           28159         42.3378         40.0095         1.51319        -9.12840
           28160         41.4643         39.0405         1.26983        -9.00169
           28161         41.6485         39.5728         1.83042        -8.90082
           28162         40.7746         38.5760         1.55786        -8.79637
           28163         40.9339         39.1426         2.16622        -8.63210
           28164         40.0600         38.1182         1.86380        -8.55143
           28165         40.1959         38.7199         2.51919        -8.32014
           28166         39.3220         37.6680         2.18656        -8.26486
           28167         39.4376         38.3062         2.88716        -7.96285
           28168         38.5631         37.2268         2.52436        -7.93471
           28169         38.6635         37.9031         3.26700        -7.55810
           28170         37.7870         36.7960         2.87452        -7.55903
           28171         37.8796         37.5129         3.65442        -7.10361
           28172         36.9991         36.3777         3.23326        -7.13584
           28173         37.0942         37.1383         4.04368        -6.59683
           28174         36.2068         35.9744         3.59543        -6.66303
           28175         36.3177         36.7828         4.42745        -6.03473
           28176         35.4194         35.5893         3.95424        -6.13820
           28177         35.5635         36.4510         4.79651        -5.41349
           28178         34.6493         35.2264         4.30103        -5.55839
           28179         34.8482         36.1483         5.13966        -4.72814
           28180         33.9117         34.8909         4.62498        -4.91970
           28181         34.1923         35.8814         5.44362        -3.97200
           28182         33.2259         34.5892         4.91301        -4.21688
           28183         33.6215         35.6580         5.69318        -3.13613
           28184         32.6153         34.3288         5.14975        -3.44266
           28185         33.1671         35.4868         5.87151        -2.20866
           28186         32.1094         34.1188         5.31768        -2.58710
           28187         32.8683         35.3770         5.96076        -1.17410
           28188         31.7442         33.9687         5.39768        -1.63679
           28189         32.7737         35.3383         5.94238    -11.4830E-03
           28190         31.5644         33.8890         5.36974    -574.207E-03
           28191         60.7085         63.5136         17.7786        -12.4452
           28192         60.7544         63.6207         18.4321        -12.6019
           28193         59.9338         63.0398         18.9282        -12.2882
           28194         61.4920         64.0024         16.4619        -12.4842
           28195         61.5696         64.1217         17.1392        -12.7079
           28196         62.2331         64.4725         15.0383        -12.3782
           28197         62.3604         64.6185         15.6978        -12.6652
           28198         62.8886         64.8893         13.5736        -12.1230
           28199         63.0743         65.0720         14.1799        -12.4585
           28200         63.4294         65.2249         12.1288        -11.7330
           28201         63.6715         65.4472         12.6582        -12.0961
           28202         63.8415         65.4623         10.7519        -11.2348
           28203         64.1304         65.7200         11.1934        -11.6035
           28204         64.1249         65.5958         9.47501        -10.6604
           28205         64.4462         65.8798         9.82809        -11.0157
           28206         64.2892         65.6293         8.31513        -10.0411
           28207         64.6274         65.9282         8.58680        -10.3690
           28208         64.3495         65.5729         7.27746        -9.40394
           28209         64.6903         65.8752         7.47870        -9.69583
           28210         64.3232         65.4400         6.35893        -8.77061
           28211         64.6547         65.7356         6.50209        -9.02225
           28212         64.2272         65.2451         5.55150        -8.15685
           28213         64.5404         65.5259         5.64857        -8.36746
           28214         64.0770         65.0018         4.84458        -7.57340
           28215         64.3657         65.2620         4.90631        -7.74446
           28216         63.8860         64.7224         4.22677        -7.02694
           28217         64.1462         64.9584         4.26227        -7.16126
           28218         63.6653         64.4174         3.68688        -6.52105
           28219         63.8950         64.6270         3.70361        -6.62208
           28220         63.4239         64.0954         3.21450        -6.05712
           28221         63.6223         64.2778         3.21840        -6.12846
           28222         63.1687         63.7631         2.80028        -5.63500
           28223         63.3362         63.9185         2.79598        -5.68017
           28224         62.9052         63.4258         2.43601        -5.25356
           28225         63.0427         63.5550         2.42708        -5.27579
           28226         62.6375         63.0875         2.11457        -4.91106
           28227         62.7464         63.1918         2.10370        -4.91322
           28228         62.3686         62.7510         1.82985        -4.60541
           28229         62.4505         62.8319         1.81907        -4.59002
           28230         62.1008         62.4185         1.57663        -4.33438
           28231         62.1574         62.4776         1.56745        -4.30359
           28232         61.8354         62.0913         1.35050        -4.09573
           28233         61.8685         62.1302         1.34399        -4.05136
           28234         61.5736         61.7701         1.14768        -3.88725
           28235         61.5848         61.7906         1.14462        -3.83082
           28236         61.3158         61.4555     964.977E-03        -3.70684
           28237         61.3067         61.4590     965.922E-03        -3.63961
           28238         61.0623         61.1474     799.693E-03        -3.55253
           28239         61.0345         61.1354     805.004E-03        -3.47553
           28240         60.8132         60.8458     649.520E-03        -3.42248
           28241         60.7680         60.8196     659.431E-03        -3.33655
           28242         60.5684         60.5502     512.500E-03        -3.31501
           28243         60.5070         60.5112     527.143E-03        -3.22083
           28244         60.3275         60.2603     386.962E-03        -3.22856
           28245         60.2512         60.2094     406.397E-03        -3.12668
           28246         60.0902         59.9754     271.479E-03        -3.16173
           28247         59.9998         59.9137     295.710E-03        -3.05257
           28248         59.8561         59.6949     164.832E-03        -3.11322
           28249         59.7526         59.6233     193.821E-03        -2.99710
           28250         59.6246         59.4182     65.9723E-03        -3.08185
           28251         59.5088         59.3374     99.6534E-03        -2.95903
           28252         59.3954         59.1445    -25.9976E-03        -3.06656
           28253         59.2678         59.0552     12.2878E-03        -2.93722
           28254         59.1679         58.8730    -111.851E-03        -3.06637
           28255         59.0291         58.7759    -69.0645E-03        -2.93063
           28256         58.9416         58.6032    -192.253E-03        -3.08038
           28257         58.7920         58.4986    -145.080E-03        -2.93834
           28258         58.7159         58.3343    -267.777E-03        -3.10778
           28259         58.5559         58.2226    -216.338E-03        -2.95948
           28260         58.4903         58.0655    -338.914E-03        -3.14782
           28261         58.3202         57.9471    -283.339E-03        -2.99330
           28262         58.2644         57.7961    -406.090E-03        -3.19983
           28263         58.0844         57.6713    -346.510E-03        -3.03906
           28264         58.0377         57.5256    -469.666E-03        -3.26315
           28265         57.8478         57.3945    -406.219E-03        -3.09613
           28266         57.8098         57.2532    -529.954E-03        -3.33721
           28267         57.6100         57.1160    -462.778E-03        -3.16391
           28268         57.5801         56.9784    -587.218E-03        -3.42146
           28269         57.3704         56.8350    -516.456E-03        -3.24184
           28270         57.3482         56.7005    -641.680E-03        -3.51538
           28271         57.1286         56.5510    -567.478E-03        -3.32939
           28272         57.1139         56.4190    -693.527E-03        -3.61848
           28273         56.8841         56.2632    -616.035E-03        -3.42609
           28274         56.8766         56.1333    -742.909E-03        -3.73032
           28275         56.6365         55.9712    -662.282E-03        -3.53148
           28276         56.6361         55.8429    -789.949E-03        -3.85044
           28277         56.3854         55.6743    -706.345E-03        -3.64512
           28278         56.3920         55.5474    -834.740E-03        -3.97842
           28279         56.1304         55.3720    -748.326E-03        -3.76659
           28280         56.1440         55.2462    -877.350E-03        -4.11386
           28281         55.8711         55.0638    -788.299E-03        -3.89548
           28282         55.8918         54.9389    -917.822E-03        -4.25634
           28283         55.6072         54.7493    -826.314E-03        -4.03142
           28284         55.6352         54.6252    -956.175E-03        -4.40547
           28285         55.3385         54.4280    -862.401E-03        -4.17400
           28286         55.3739         54.3046    -992.407E-03        -4.56085
           28287         55.0646         54.0994    -896.570E-03        -4.32283
           28288         55.1077         53.9769        -1.02650        -4.72206
           28289         54.7853         53.7632    -928.807E-03        -4.47755
           28290         54.8363         53.6417        -1.05839        -4.88872
           28291         54.5003         53.4192    -959.082E-03        -4.63775
           28292         54.5596         53.2987        -1.08804        -5.06039
           28293         54.2095         53.0668    -987.344E-03        -4.80305
           28294         54.2774         52.9478        -1.11535        -5.23664
           28295         53.9125         52.7060        -1.01352        -4.97302
           28296         53.9894         52.5886        -1.14020        -5.41705
           28297         53.6093         52.3364        -1.03753        -5.14726
           28298         53.6956         52.2211        -1.16249        -5.60113
           28299         53.2997         51.9579        -1.05927        -5.32532
           28300         53.3958         51.8451        -1.18205        -5.78840
           28301         52.9834         51.5702        -1.07859        -5.50675
           28302         53.0898         51.4605        -1.19872        -5.97836
           28303         52.6604         51.1733        -1.09537        -5.69107
           28304         52.7775         51.0672        -1.21230        -6.17046
           28305         52.3305         50.7670        -1.10942        -5.87777
           28306         52.4587         50.6653        -1.22258        -6.36413
           28307         51.9936         50.3513        -1.12057        -6.06632
           28308         52.1332         50.2546        -1.22932        -6.55877
           28309         51.6494         49.9262        -1.12860        -6.25614
           28310         51.8008         49.8353        -1.23225        -6.75373
           28311         51.2979         49.4917        -1.13327        -6.44663
           28312         51.4614         49.4075        -1.23108        -6.94833
           28313         50.9390         49.0479        -1.13434        -6.63715
           28314         51.1148         48.9713        -1.22550        -7.14183
           28315         50.5723         48.5949        -1.13151        -6.82701
           28316         50.7606         48.5268        -1.21515        -7.33345
           28317         50.1978         48.1329        -1.12449        -7.01546
           28318         50.3986         48.0744        -1.19966        -7.52235
           28319         49.8152         47.6621        -1.11293        -7.20174
           28320         50.0285         47.6143        -1.17863        -7.70766
           28321         49.4243         47.1828        -1.09648        -7.38499
           28322         49.6499         47.1467        -1.15161        -7.88841
           28323         49.0248         46.6952        -1.07473        -7.56432
           28324         49.2624         46.6721        -1.11814        -8.06358
           28325         48.6164         46.1997        -1.04728        -7.73877
           28326         48.8655         46.1909        -1.07771        -8.23211
           28327         48.1987         45.6967        -1.01366        -7.90730
           28328         48.4587         45.7034        -1.02977        -8.39283
           28329         47.7712         45.1867    -973.379E-03        -8.06884
           28330         48.0413         45.2103    -973.757E-03        -8.54453
           28331         47.3335         44.6702    -925.926E-03        -8.22221
           28332         47.6127         44.7120    -909.054E-03        -8.68588
           28333         46.8851         44.1478    -870.741E-03        -8.36617
           28334         47.1721         44.2092    -835.015E-03        -8.81553
           28335         46.4251         43.6201    -807.236E-03        -8.49940
           28336         46.7186         43.7025    -750.958E-03        -8.93199
           28337         45.9531         43.0876    -734.786E-03        -8.62049
           28338         46.2513         43.1924    -656.170E-03        -9.03373
           28339         45.4680         42.5513    -652.734E-03        -8.72797
           28340         45.7692         42.6799    -549.909E-03        -9.11912
           28341         44.9692         42.0117    -560.395E-03        -8.82027
           28342         45.2711         42.1655    -431.407E-03        -9.18644
           28343         44.4556         41.4697    -457.054E-03        -8.89572
           28344         44.7561         41.6501    -299.881E-03        -9.23392
           28345         43.9262         40.9261    -341.975E-03        -8.95261
           28346         44.2227         41.1344    -154.541E-03        -9.25969
           28347         43.3799         40.3819    -214.410E-03        -8.98911
           28348         43.6698         40.6193     5.39855E-03        -9.26181
           28349         42.8155         39.8378    -73.6046E-03        -9.00335
           28350         43.0962         40.1056     180.694E-03        -9.23829
           28351         42.2320         39.2949     81.1812E-03        -8.99336
           28352         42.5008         39.5942     372.055E-03        -9.18709
           28353         41.6282         38.7540     250.655E-03        -8.95712
           28354         41.8824         39.0859     580.106E-03        -9.10612
           28355         41.0031         38.2161     435.465E-03        -8.89260
           28356         41.2402         38.5816     805.348E-03        -8.99328
           28357         40.3557         37.6823     636.166E-03        -8.79769
           28358         40.5736         38.0822         1.04810        -8.84646
           28359         39.6853         37.1534     853.167E-03        -8.67031
           28360         39.8825         37.5887         1.30843        -8.66358
           28361         38.9916         36.6305         1.08667        -8.50837
           28362         39.1670         37.1019         1.58606        -8.44261
           28363         38.2746         36.1146         1.33659        -8.30984
           28364         38.4284         36.6231         1.88024        -8.18157
           28365         37.5349         35.6069         1.60246        -8.07277
           28366         37.6684         36.1533         2.18962        -7.87856
           28367         36.7741         35.1085         1.88325        -7.79528
           28368         36.8903         35.6941         2.51207        -7.53176
           28369         35.9946         34.6207         2.17727        -7.47562
           28370         36.0985         35.2470         2.84443        -7.13944
           28371         35.2002         34.1451         2.48190        -7.11217
           28372         35.2993         34.8144         3.18227        -6.69982
           28373         34.3964         33.6838         2.79335        -6.70341
           28374         34.5013         34.3990         3.51961        -6.21108
           28375         33.5907         33.2390         3.10636        -6.24784
           28376         33.7153         34.0043         3.84857        -5.67106
           28377         32.7929         32.8141         3.41384        -5.74389
           28378         32.9554         33.6351         4.15906        -5.07702
           28379         32.0157         32.4132         3.70650        -5.18962
           28380         32.2392         33.2972         4.43851        -4.42518
           28381         31.2754         32.0416         3.97249        -4.58239
           28382         31.5885         32.9980         4.67169        -3.71018
           28383         30.5922         31.7062         4.19710        -3.91833
           28384         31.0304         32.7462         4.84074        -2.92432
           28385         29.9911         31.4154         4.36261        -3.19166
           28386         30.5981         32.5519         4.92535        -2.05676
           28387         29.5031         31.1793         4.44836        -2.39378
           28388         30.3331         32.4264         4.90347        -1.09262
           28389         29.1665         31.0096         4.43114        -1.51231
           28390         30.2870         32.3819         4.75133    -10.6622E-03
           28391         29.0287         30.9188         4.28599    -530.171E-03
           28392         61.7048         64.2992         17.8913        -12.9537
           28393         61.7864         64.4592         18.6178        -13.1154
           28394         60.8464         63.7829         19.1553        -12.7656
           28395         62.5649         64.8317         16.4196        -12.9888
           28396         62.6911         65.0083         17.1725        -13.2358
           28397         63.3554         65.3325         14.8261        -12.8373
           28398         63.5497         65.5454         15.5483        -13.1622
           28399         64.0215         65.7556         13.2016        -12.5000
           28400         64.2917         66.0163         13.8476        -12.8799
           28401         64.5308         66.0672         11.6254        -12.0036
           28402         64.8698         66.3762         12.1682        -12.4085
           28403         64.8750         66.2512         10.1540        -11.3895
           28404         65.2652         66.5991         10.5853        -11.7902
           28405         65.0634         66.3076         8.82021        -10.7020
           28406         65.4831         66.6796         9.14545        -11.0760
           28407         65.1158         66.2480         7.63626        -9.98075
           28408         65.5441         66.6280         7.86905        -10.3137
           28409         65.0567         66.0904         6.60042        -9.25745
           28410         65.4761         66.4637         6.75750        -9.54226
           28411         64.9104         65.8545         5.70250        -8.55489
           28412         65.3077         66.2096         5.80048        -8.78991
           28413         64.6986         65.5595         4.92820        -7.88808
           28414         65.0652         65.8883         4.98190        -8.07530
           28415         64.4398         65.2221         4.26198        -7.26588
           28416         64.7704         65.5197         4.28372        -7.40930
           28417         64.1490         64.8564         3.68876        -6.69269
           28418         64.4411         65.1202         3.68837        -6.79714
           28419         63.8377         64.4734         3.19474        -6.16979
           28420         64.0909         64.7028         3.17983        -6.24025
           28421         63.5148         64.0818         2.76780        -5.69645
           28422         63.7299         64.2775         2.74411        -5.73764
           28423         63.1868         63.6881         2.39749        -5.27070
           28424         63.3656         63.8515         2.36930        -5.28686
           28425         62.8585         63.2969         2.07497        -4.88990
           28426         63.0030         63.4299         2.04539        -4.88472
           28427         62.5332         62.9113         1.79279        -4.55109
           28428         62.6459         63.0164         1.76408        -4.52770
           28429         62.2131         62.5337         1.54473        -4.25122
           28430         62.2965         62.6130         1.51846        -4.21223
           28431         61.8995         62.1651         1.32557        -3.98730
           28432         61.9561         62.2212         1.30287        -3.93487
           28433         61.5934         61.8064         1.13100        -3.75649
           28434         61.6253         61.8413         1.11260        -3.69239
           28435         61.2949         61.4577     957.378E-03        -3.55615
           28436         61.3045         61.4735     943.772E-03        -3.48178
           28437         61.0041         61.1187     801.695E-03        -3.38383
           28438         60.9932         61.1174     793.169E-03        -3.30034
           28439         60.7206         60.7892     661.410E-03        -3.23732
           28440         60.6911         60.7725     658.119E-03        -3.14560
           28441         60.4441         60.4683     534.396E-03        -3.11461
           28442         60.3976         60.4378     536.392E-03        -3.01536
           28443         60.1739         60.1554     418.857E-03        -3.01386
           28444         60.1119         60.1125     426.125E-03        -2.90762
           28445         59.9095         59.8497     313.280E-03        -2.93345
           28446         59.8332         59.7957     325.754E-03        -2.82062
           28447         59.6501         59.5502     216.379E-03        -2.87190
           28448         59.5607         59.4862     233.962E-03        -2.75277
           28449         59.3950         59.2561     127.065E-03        -2.82787
           28450         59.2934         59.1830     149.635E-03        -2.70266
           28451         59.1434         58.9664     44.4084E-03        -2.80018
           28452         59.0304         58.8850     71.8309E-03        -2.66902
           28453         58.8946         58.6801    -32.3831E-03        -2.78775
           28454         58.7710         58.5913    -252.309E-06        -2.65071
           28455         58.6479         58.3965    -103.988E-03        -2.78960
           28456         58.5143         58.3007    -67.2975E-03        -2.64671
           28457         58.4026         58.1145    -170.988E-03        -2.80485
           28458         58.2594         58.0124    -129.888E-03        -2.65611
           28459         58.1580         57.8334    -233.880E-03        -2.83272
           28460         58.0055         57.7253    -188.522E-03        -2.67808
           28461         57.9134         57.5522    -293.092E-03        -2.87246
           28462         57.7520         57.4384    -243.625E-03        -2.71187
           28463         57.6682         57.2702    -348.989E-03        -2.92342
           28464         57.4980         57.1510    -295.564E-03        -2.75681
           28465         57.4217         56.9865    -401.885E-03        -2.98499
           28466         57.2429         56.8621    -344.649E-03        -2.81227
           28467         57.1735         56.7005    -452.046E-03        -3.05661
           28468         56.9860         56.5710    -391.147E-03        -2.87769
           28469         56.9229         56.4114    -499.699E-03        -3.13776
           28470         56.7267         56.2768    -435.284E-03        -2.95253
           28471         56.6694         56.1185    -545.035E-03        -3.22796
           28472         56.4645         55.9789    -477.250E-03        -3.03633
           28473         56.4126         55.8212    -588.211E-03        -3.32676
           28474         56.1987         55.6764    -517.205E-03        -3.12862
           28475         56.1520         55.5188    -629.357E-03        -3.43371
           28476         55.9288         55.3688    -555.281E-03        -3.22898
           28477         55.8871         55.2109    -668.577E-03        -3.54842
           28478         55.6545         55.0554    -591.584E-03        -3.33701
           28479         55.6176         54.8967    -705.952E-03        -3.67049
           28480         55.3751         54.7356    -626.198E-03        -3.45232
           28481         55.3431         54.5759    -741.537E-03        -3.79954
           28482         55.0904         54.4088    -659.185E-03        -3.57455
           28483         55.0632         54.2480    -775.371E-03        -3.93520
           28484         54.7999         54.0746    -690.589E-03        -3.70332
           28485         54.7777         53.9124    -807.470E-03        -4.07710
           28486         54.5031         53.7324    -720.435E-03        -3.83830
           28487         54.4862         53.5687    -837.833E-03        -4.22486
           28488         54.2000         53.3817    -748.729E-03        -3.97912
           28489         54.1884         53.2167    -866.441E-03        -4.37813
           28490         53.8900         53.0222    -775.463E-03        -4.12543
           28491         53.8841         52.8559    -893.255E-03        -4.53652
           28492         53.5729         52.6535    -800.609E-03        -4.27689
           28493         53.5732         52.4861    -918.221E-03        -4.69965
           28494         53.2486         52.2751    -824.126E-03        -4.43312
           28495         53.2553         52.1069    -941.266E-03        -4.86714
           28496         52.9166         51.8869    -845.957E-03        -4.59376
           28497         52.9303         51.7181    -962.301E-03        -5.03856
           28498         52.5770         51.4885    -866.028E-03        -4.75843
           28499         52.5980         51.3195    -981.219E-03        -5.21349
           28500         52.2293         51.0797    -884.248E-03        -4.92672
           28501         52.2583         50.9110    -997.892E-03        -5.39148
           28502         51.8736         50.6603    -900.512E-03        -5.09822
           28503         51.9111         50.4924        -1.01218        -5.57207
           28504         51.5096         50.2301    -914.697E-03        -5.27248
           28505         51.5561         50.0637        -1.02391        -5.75474
           28506         51.1373         49.7891    -926.662E-03        -5.44904
           28507         51.1933         49.6247        -1.03291        -5.93898
           28508         50.7565         49.3371    -936.249E-03        -5.62740
           28509         50.8225         49.1756        -1.03897        -6.12421
           28510         50.3670         48.8741    -943.282E-03        -5.80705
           28511         50.4437         48.7163        -1.04187        -6.30984
           28512         49.9689         48.4002    -947.565E-03        -5.98742
           28513         50.0566         48.2470        -1.04136        -6.49522
           28514         49.5620         47.9155    -948.882E-03        -6.16791
           28515         49.6613         47.7679        -1.03716        -6.67967
           28516         49.1461         47.4199    -946.995E-03        -6.34788
           28517         49.2574         47.2790        -1.02898        -6.86245
           28518         48.7213         46.9138    -941.645E-03        -6.52665
           28519         48.8448         46.7806        -1.01650        -7.04277
           28520         48.2873         46.3974    -932.548E-03        -6.70348
           28521         48.4233         46.2731    -999.377E-03        -7.21980
           28522         47.8441         45.8709    -919.397E-03        -6.87758
           28523         47.9927         45.7567    -977.223E-03        -7.39263
           28524         47.3915         45.3346    -901.859E-03        -7.04811
           28525         47.5527         45.2320    -949.637E-03        -7.56031
           28526         46.9293         44.7890    -879.574E-03        -7.21417
           28527         47.1031         44.6993    -916.181E-03        -7.72179
           28528         46.4573         44.2346    -852.154E-03        -7.37479
           28529         46.6433         44.1592    -876.388E-03        -7.87597
           28530         45.9752         43.6718    -819.182E-03        -7.52892
           28531         46.1730         43.6122    -829.757E-03        -8.02169
           28532         45.4828         43.1012    -780.211E-03        -7.67545
           28533         45.6917         43.0591    -775.754E-03        -8.15769
           28534         44.9797         42.5235    -734.762E-03        -7.81321
           28535         45.1988         42.5004    -713.814E-03        -8.28264
           28536         44.4653         41.9393    -682.325E-03        -7.94093
           28537         44.6937         41.9369    -643.339E-03        -8.39512
           28538         43.9394         41.3496    -622.361E-03        -8.05726
           28539         44.1757         41.3694    -563.698E-03        -8.49363
           28540         43.4012         40.7550    -554.296E-03        -8.16077
           28541         43.6439         40.7988    -474.232E-03        -8.57659
           28542         42.8502         40.1565    -477.529E-03        -8.24995
           28543         43.0975         40.2260    -374.258E-03        -8.64232
           28544         42.2856         39.5551    -391.431E-03        -8.32319
           28545         42.5355         39.6519    -263.071E-03        -8.68908
           28546         41.7066         38.9517    -295.350E-03        -8.37880
           28547         41.9570         39.0775    -139.957E-03        -8.71504
           28548         41.1125         38.3475    -188.616E-03        -8.41502
           28549         41.3609         38.5038    -4.19847E-03        -8.71827
           28550         40.5022         37.7435    -70.5511E-03        -8.42998
           28551         40.7462         37.9319     144.903E-03        -8.69682
           28552         39.8749         37.1408     59.5206E-03        -8.42175
           28553         40.1119         37.3628     308.010E-03        -8.64865
           28554         39.2296         36.5407     202.252E-03        -8.38836
           28555         39.4569         36.7976     485.718E-03        -8.57169
           28556         38.5655         35.9443     358.253E-03        -8.32776
           28557         38.7807         36.2375     678.520E-03        -8.46386
           28558         37.8817         35.3529     528.057E-03        -8.23788
           28559         38.0826         35.6836     886.747E-03        -8.32306
           28560         37.1777         34.7677     712.079E-03        -8.11664
           28561         37.3624         35.1369         1.11051        -8.14725
           28562         36.4531         34.1900     910.556E-03        -7.96197
           28563         36.6205         34.5987         1.34959        -7.93445
           28564         35.7081         33.6210         1.12347        -7.77188
           28565         35.8579         34.0701         1.60335        -7.68275
           28566         34.9431         33.0619         1.35044        -7.54445
           28567         35.0766         33.5526         1.87056        -7.39042
           28568         34.1598         32.5143         1.59060        -7.27791
           28569         34.2795         33.0475         2.14920        -7.05587
           28570         33.3606         31.9794         1.84242        -6.97068
           28571         33.4712         32.5565         2.43623        -6.67770
           28572         32.5491         31.4589         2.10344        -6.62140
           28573         32.6581         32.0819         2.72728        -6.25467
           28574         31.7309         30.9547         2.37005        -6.22896
           28575         31.8488         31.6263         3.01627        -5.78565
           28576         30.9134         30.4693         2.63707        -5.79246
           28577         31.0547         31.1933         3.29503        -5.26944
           28578         30.1068         30.0056         2.89733        -5.31115
           28579         30.2904         30.7875         3.55280        -4.70449
           28580         29.3242         29.5678         3.14119        -4.78424
           28581         29.5743         30.4151         3.77583        -4.08852
           28582         28.5825         29.1612         3.35600        -4.21051
           28583         28.9296         30.0839         3.94702        -3.41779
           28584         27.9029         28.7930         3.52562        -3.58782
           28585         28.3847         29.8036         4.04573        -2.68633
           28586         27.3118         28.4722         3.63003        -2.91226
           28587         27.9751         29.5859         4.04794        -1.88484
           28588         26.8420         28.2102         3.64523        -2.17716
           28589         27.7445         29.4441         3.92673    -999.575E-03
           28590         26.5341         28.0205         3.54349        -1.37179
           28591         27.7482         29.3934         3.65224    -9.58711E-03
           28592         26.4386         27.9182         3.29417    -480.096E-03
           28593         62.8939         65.2618         18.0203        -13.5135
           28594         63.0209         65.4900         18.8411        -13.6823
           28595         61.9276         64.6908         19.4336        -13.2870
           28596         63.8482         65.8484         16.3447        -13.5364
           28597         64.0392         66.1004         17.1937        -13.8161
           28598         64.6898         66.3814         14.5337        -13.3143
           28599         64.9753         66.6841         15.3305        -13.6907
           28600         65.3486         66.7983         12.7155        -12.8597
           28601         65.7333         67.1640         13.4011        -13.2959
           28602         65.7941         67.0605         10.9921        -12.2210
           28603         66.2600         67.4838         11.5384        -12.6734
           28604         66.0298         67.1574         9.42738        -11.4610
           28605         66.5472         67.6200         9.83306        -11.8923
           28606         66.0817         67.1004         8.04911        -10.6401
           28607         66.6188         67.5792         8.33000        -11.0251
           28608         65.9847         66.9135         6.85955        -9.80657
           28609         66.5147         67.3867         7.03880        -10.1327
           28610         65.7747         66.6250         5.84573        -8.99487
           28611         66.2778         67.0754         5.94721        -9.25890
           28612         65.4838         66.2624         4.98761        -8.22673
           28613         65.9470         66.6782         5.03247        -8.43137
           28614         65.1382         65.8494         4.26323        -7.51423
           28615         65.5545         66.2237         4.26871        -7.66534
           28616         64.7583         65.4053         3.65162        -6.86263
           28617         65.1248         65.7352         3.63100        -6.96729
           28618         64.3596         64.9448         3.13403        -6.27280
           28619         64.6764         65.2301         3.09722        -6.33806
           28620         63.9532         64.4790         2.69439        -5.74289
           28621         64.2221         64.7211         2.64857        -5.77525
           28622         63.5470         64.0157         2.31923        -5.26959
           28623         63.7709         64.2172         2.26951        -5.27469
           28624         63.1463         63.5602         1.99742        -4.84885
           28625         63.3286         63.7243         1.94737        -4.83146
           28626         62.7547         63.1160         1.71983        -4.47642
           28627         62.8990         63.2462         1.67188        -4.44045
           28628         62.3742         62.6852         1.47901        -4.14808
           28629         62.4841         62.7848         1.43479        -4.09672
           28630         62.0058         62.2690         1.26885        -3.85986
           28631         62.0847         62.3412         1.22942        -3.79564
           28632         61.6501         61.8675         1.08437        -3.60809
           28633         61.7011         61.9153         1.05038        -3.53302
           28634         61.3069         61.4807     921.507E-03        -3.38941
           28635         61.3328         61.5069     893.310E-03        -3.30507
           28636         60.9756         61.1077     776.897E-03        -3.20082
           28637         60.9792         61.1148     754.660E-03        -3.10842
           28638         60.6555         60.7479     647.778E-03        -3.03963
           28639         60.6391         60.7382     631.531E-03        -2.94008
           28640         60.3459         60.4002     531.863E-03        -2.90343
           28641         60.3115         60.3756     521.545E-03        -2.79743
           28642         60.0457         60.0634     427.250E-03        -2.79009
           28643         59.9951         60.0258     422.742E-03        -2.67815
           28644         59.7539         59.7364     332.354E-03        -2.69773
           28645         59.6887         59.6872     333.498E-03        -2.58019
           28646         59.4694         59.4179     245.846E-03        -2.62466
           28647         59.3911         59.3586     252.463E-03        -2.50176
           28648         59.1912         59.1068     166.609E-03        -2.56939
           28649         59.1010         59.0386     178.508E-03        -2.44126
           28650         58.9183         58.8018     93.6998E-03        -2.53058
           28651         58.8171         58.7256     110.687E-03        -2.39730
           28652         58.6496         58.5017     26.3208E-03        -2.50707
           28653         58.5384         58.4185     48.2019E-03        -2.36863
           28654         58.3841         58.2055    -36.2055E-03        -2.49779
           28655         58.2636         58.1160    -9.62126E-03        -2.35415
           28656         58.1210         57.9120    -94.4560E-03        -2.50180
           28657         57.9918         57.8168    -63.3539E-03        -2.35288
           28658         57.8594         57.6201    -148.923E-03        -2.51826
           28659         57.7220         57.5197    -113.482E-03        -2.36395
           28660         57.5983         57.3289    -200.026E-03        -2.54639
           28661         57.4530         57.2238    -160.419E-03        -2.38657
           28662         57.3369         57.0373    -248.124E-03        -2.58552
           28663         57.1841         56.9278    -204.517E-03        -2.42003
           28664         57.0746         56.7445    -293.524E-03        -2.63500
           28665         56.9144         56.6307    -246.078E-03        -2.46371
           28666         56.8104         56.4494    -336.488E-03        -2.69429
           28667         56.6430         56.3317    -285.357E-03        -2.51702
           28668         56.5438         56.1514    -377.238E-03        -2.76284
           28669         56.3691         56.0298    -322.573E-03        -2.57944
           28670         56.2741         55.8495    -415.962E-03        -2.84018
           28671         56.0921         55.7241    -357.911E-03        -2.65048
           28672         56.0007         55.5431    -452.819E-03        -2.92586
           28673         55.8112         55.4138    -391.526E-03        -2.72971
           28674         55.7229         55.2314    -487.940E-03        -3.01947
           28675         55.5258         55.0981    -423.550E-03        -2.81671
           28676         55.4403         54.9137    -521.433E-03        -3.12061
           28677         55.2353         54.7762    -454.088E-03        -2.91110
           28678         55.1524         54.5893    -553.383E-03        -3.22891
           28679         54.9391         54.4476    -483.227E-03        -3.01250
           28680         54.8586         54.2577    -583.856E-03        -3.34400
           28681         54.6368         54.1114    -511.036E-03        -3.12058
           28682         54.5585         53.9183    -612.900E-03        -3.46555
           28683         54.3277         53.7672    -537.566E-03        -3.23500
           28684         54.2518         53.5705    -640.545E-03        -3.59321
           28685         54.0115         53.4143    -562.850E-03        -3.35543
           28686         53.9380         53.2139    -666.805E-03        -3.72665
           28687         53.6877         53.0521    -586.911E-03        -3.48156
           28688         53.6169         52.8480    -691.680E-03        -3.86555
           28689         53.3559         52.6802    -609.752E-03        -3.61308
           28690         53.2880         52.4723    -715.153E-03        -4.00955
           28691         53.0159         52.2981    -631.367E-03        -3.74966
           28692         52.9511         52.0865    -737.193E-03        -4.15834
           28693         52.6672         51.9053    -651.734E-03        -3.89100
           28694         52.6060         51.6902    -757.756E-03        -4.31155
           28695         52.3096         51.5016    -670.818E-03        -4.03676
           28696         52.2524         51.2831    -776.780E-03        -4.46884
           28697         51.9428         51.0864    -688.574E-03        -4.18662
           28698         51.8901         50.8650    -794.194E-03        -4.62983
           28699         51.5666         50.6596    -704.942E-03        -4.34024
           28700         51.5189         50.4355    -809.906E-03        -4.79413
           28701         51.1808         50.2208    -719.847E-03        -4.49724
           28702         51.1387         49.9946    -823.814E-03        -4.96134
           28703         50.7852         49.7699    -733.204E-03        -4.65726
           28704         50.7494         49.5420    -835.799E-03        -5.13103
           28705         50.3797         49.3065    -744.912E-03        -4.81990
           28706         50.3508         49.0777    -845.725E-03        -5.30274
           28707         49.9641         48.8307    -754.857E-03        -4.98473
           28708         49.9428         48.6016    -853.440E-03        -5.47598
           28709         49.5384         48.3423    -762.910E-03        -5.15132
           28710         49.5254         48.1137    -858.775E-03        -5.65024
           28711         49.1024         47.8413    -768.928E-03        -5.31917
           28712         49.0984         47.6141    -861.544E-03        -5.82497
           28713         48.6561         47.3276    -772.748E-03        -5.48779
           28714         48.6618         47.1027    -861.540E-03        -5.99957
           28715         48.1995         46.8013    -774.195E-03        -5.65663
           28716         48.2156         46.5799    -858.536E-03        -6.17340
           28717         47.7325         46.2627    -773.074E-03        -5.82509
           28718         47.7597         46.0457    -852.286E-03        -6.34580
           28719         47.2551         45.7117    -769.171E-03        -5.99255
           28720         47.2939         45.5005    -842.521E-03        -6.51602
           28721         46.7673         45.1488    -762.253E-03        -6.15834
           28722         46.8183         44.9445    -828.949E-03        -6.68329
           28723         46.2691         44.5741    -752.066E-03        -6.32172
           28724         46.3326         44.3782    -811.253E-03        -6.84675
           28725         45.7604         43.9880    -738.336E-03        -6.48192
           28726         45.8369         43.8019    -789.092E-03        -7.00551
           28727         45.2412         43.3910    -720.763E-03        -6.63809
           28728         45.3310         43.2163    -762.096E-03        -7.15861
           28729         44.7115         42.7836    -699.025E-03        -6.78933
           28730         44.8146         42.6218    -729.870E-03        -7.30499
           28731         44.1712         42.1664    -672.775E-03        -6.93468
           28732         44.2876         42.0192    -691.988E-03        -7.44354
           28733         43.6201         41.5399    -641.639E-03        -7.07308
           28734         43.7496         41.4092    -647.997E-03        -7.57309
           28735         43.0582         40.9050    -605.215E-03        -7.20343
           28736         43.2004         40.7926    -597.411E-03        -7.69236
           28737         42.4853         40.2624    -563.074E-03        -7.32453
           28738         42.6395         40.1701    -539.717E-03        -7.80000
           28739         41.9010         39.6131    -514.759E-03        -7.43510
           28740         42.0665         39.5428    -474.370E-03        -7.89457
           28741         41.3052         38.9579    -459.783E-03        -7.53380
           28742         41.4808         38.9117    -400.799E-03        -7.97454
           28743         40.6974         38.2980    -397.633E-03        -7.61916
           28744         40.8819         38.2779    -318.406E-03        -8.03830
           28745         40.0773         37.6345    -327.767E-03        -7.68966
           28746         40.2690         37.6424    -226.571E-03        -8.08416
           28747         39.4443         36.9685    -249.621E-03        -7.74367
           28748         39.6414         37.0065    -124.660E-03        -8.11031
           28749         38.7979         36.3014    -162.610E-03        -7.77947
           28750         38.9983         36.3714    -12.0297E-03        -8.11490
           28751         38.1375         35.6344    -66.1363E-03        -7.79526
           28752         38.3390         35.7384     111.954E-03        -8.09599
           28753         37.4624         34.9690     40.4035E-03        -7.78916
           28754         37.6626         35.1089     247.902E-03        -8.05157
           28755         36.7720         34.3066     157.601E-03        -7.75922
           28756         36.9685         34.4841     396.377E-03        -7.97960
           28757         36.0655         33.6487     286.019E-03        -7.70343
           28758         36.2559         33.8656     557.860E-03        -7.87800
           28759         35.3425         32.9969     426.168E-03        -7.61974
           28760         35.5245         33.2547     732.701E-03        -7.74469
           28761         34.6025         32.3526     578.464E-03        -7.50608
           28762         34.7741         32.6528     921.060E-03        -7.57764
           28763         33.8454         31.7175     743.180E-03        -7.36040
           28764         34.0052         32.0613         1.12282        -7.37489
           28765         33.0711         31.0931     920.375E-03        -7.18070
           28766         33.2187         31.4816         1.33747        -7.13460
           28767         32.2805         30.4810         1.10980        -6.96509
           28768         32.4165         30.9153         1.56397        -6.85512
           28769         31.4749         29.8827         1.31077        -6.71185
           28770         31.6015         30.3639         1.80052        -6.53503
           28771         30.6567         29.2999         1.52199        -6.41949
           28772         30.7783         29.8292         2.04434        -6.17321
           28773         29.8296         28.7343         1.74132        -6.08685
           28774         29.9531         29.3132         2.29128        -5.76887
           28775         28.9988         28.1877         1.96545        -5.71313
           28776         29.1346         28.8185         2.53545        -5.32155
           28777         28.1718         27.6626         2.18952        -5.29796
           28778         28.3344         28.3486         2.76863        -4.83103
           28779         27.3587         27.1616         2.40659        -4.84140
           28780         27.5674         27.9078         2.97974        -4.29708
           28781         26.5728         26.6888         2.60701        -4.34380
           28782         26.8529         27.5024         3.15414        -3.71909
           28783         25.8316         26.2492         2.77770        -3.80554
           28784         26.2150         27.1404         3.27305        -3.09539
           28785         25.1569         25.8500         2.90139        -3.22650
           28786         25.6837         26.8323         3.31313        -2.42224
           28787         24.5765         25.5007         2.95599        -2.60515
           28788         25.2964         26.5914         3.24636        -1.69258
           28789         24.1247         25.2136         2.91413        -1.93739
           28790         25.0995         26.4331         3.04042    -894.548E-03
           28791         23.8446         25.0041         2.74321        -1.21496
           28792         25.1525         26.3760         2.65822    -8.22151E-03
           28793         23.7899         24.8901         2.40600    -423.755E-03
           28794         64.3361         66.4573         18.1653        -14.1398
           28795         64.5234         66.7767         19.1115        -14.3189
           28796         63.2279         65.8147         19.7792        -13.8653
           28797         65.4070         67.1118         16.2140        -14.1342
           28798         65.6885         67.4666         17.1874        -14.4614
           28799         66.2931         67.6734         14.1211        -13.7999
           28800         66.7083         68.1010         15.0047        -14.2471
           28801         66.9089         68.0577         12.0707        -13.1750
           28802         67.4523         68.5684         12.7893        -13.6816
           28803         67.2354         68.2262         10.1911        -12.3454
           28804         67.8695         68.8020         10.7214        -12.8485
           28805         67.3023         68.1837         8.54590        -11.4053
           28806         67.9783         68.7917         8.90208        -11.8588
           28807         67.1616         67.9622         7.14836        -10.4328
           28808         67.8358         68.5681         7.36282        -10.8127
           28809         66.8688         67.6040         5.98220        -9.48264
           28810         67.5092         68.1806         6.09078        -9.78222
           28811         66.4727         67.1502         5.01802        -8.58780
           28812         67.0596         67.6794         5.05239        -8.81098
           28813         66.0122         66.6357         4.22341        -7.76513
           28814         66.5357         67.1080         4.20860        -7.92104
           28815         65.5163         66.0877         3.56804        -7.02078
           28816         65.9732         66.4998         3.52255        -7.12013
           28817         65.0055         65.5262         3.02566        -6.35441
           28818         65.3972         65.8788         2.96262        -6.40754
           28819         64.4941         64.9655         2.57450        -5.76210
           28820         64.8241         65.2617         2.50293        -5.77816
           28821         63.9913         64.4148         2.19693        -5.23824
           28822         64.2646         64.6591         2.12289        -5.22487
           28823         63.5030         63.8802         1.87881        -4.77663
           28824         63.7250         64.0777         1.80627        -4.74001
           28825         63.0325         63.3651         1.60890        -4.37107
           28826         63.2085         63.5209         1.54039        -4.31611
           28827         62.5814         62.8714         1.37826        -4.01574
           28828         62.7166         62.9903         1.31533        -3.94626
           28829         62.1503         62.3995         1.17980        -3.70531
           28830         62.2493         62.4860         1.12332        -3.62425
           28831         61.7387         61.9491         1.00782        -3.43502
           28832         61.8059         62.0073     958.243E-03        -3.34462
           28833         61.3459         61.5192     857.774E-03        -3.20063
           28834         61.3850         61.5529     815.254E-03        -3.10257
           28835         60.9706         61.1087     726.000E-03        -2.99844
           28836         60.9851         61.1211     690.502E-03        -2.89396
           28837         60.6115         60.7161     609.527E-03        -2.82520
           28838         60.6044         60.7100     580.901E-03        -2.71520
           28839         60.2672         60.3398     505.938E-03        -2.67807
           28840         60.2410         60.3177     483.965E-03        -2.56316
           28841         59.9361         59.9781     413.257E-03        -2.55456
           28842         59.8931         59.9422     397.677E-03        -2.43517
           28843         59.6166         59.6293     329.854E-03        -2.45250
           28844         59.5588         59.5816     320.392E-03        -2.32889
           28845         59.3074         59.2919     254.384E-03        -2.37001
           28846         59.2365         59.2340     250.761E-03        -2.24230
           28847         59.0069         58.9643     185.728E-03        -2.30541
           28848         58.9243         58.8975     187.668E-03        -2.17364
           28849         58.7138         58.6448     122.952E-03        -2.25724
           28850         58.6208         58.5705     130.189E-03        -2.12138
           28851         58.4266         58.3321     65.2727E-03        -2.22423
           28852         58.3244         58.2513     77.5526E-03        -2.08417
           28853         58.1443         58.0247     12.0296E-03        -2.20524
           28854         58.0336         57.9383     29.1135E-03        -2.06084
           28855         57.8654         57.7212    -37.3342E-03        -2.19926
           28856         57.7471         57.6299    -15.6715E-03        -2.05034
           28857         57.5890         57.4205    -83.2914E-03        -2.20540
           28858         57.4636         57.3249    -57.2610E-03        -2.05177
           28859         57.3138         57.1211    -126.243E-03        -2.22287
           28860         57.1818         57.0219    -96.0433E-03        -2.06432
           28861         57.0390         56.8221    -166.532E-03        -2.25096
           28862         56.9008         56.7195    -132.348E-03        -2.08726
           28863         56.7634         56.5223    -204.447E-03        -2.28902
           28864         56.6193         56.4167    -166.454E-03        -2.11994
           28865         56.4863         56.2207    -240.238E-03        -2.33648
           28866         56.3364         56.1122    -198.601E-03        -2.16179
           28867         56.2068         55.9162    -274.115E-03        -2.39282
           28868         56.0511         55.8051    -228.990E-03        -2.21229
           28869         55.9239         55.6079    -306.258E-03        -2.45757
           28870         55.7626         55.4943    -257.794E-03        -2.27095
           28871         55.6371         55.2950    -336.817E-03        -2.53028
           28872         55.4699         55.1789    -285.158E-03        -2.33736
           28873         55.3455         54.9767    -365.919E-03        -2.61055
           28874         55.1724         54.8579    -311.204E-03        -2.41111
           28875         55.0486         54.6520    -393.670E-03        -2.69800
           28876         54.8693         54.5305    -336.034E-03        -2.49184
           28877         54.7456         54.3203    -420.156E-03        -2.79229
           28878         54.5599         54.1960    -359.733E-03        -2.57920
           28879         54.4360         53.9808    -445.444E-03        -2.89308
           28880         54.2436         53.8535    -382.368E-03        -2.67287
           28881         54.1193         53.6329    -469.589E-03        -3.00005
           28882         53.9197         53.5023    -403.992E-03        -2.77254
           28883         53.7949         53.2760    -492.626E-03        -3.11288
           28884         53.5876         53.1417    -424.645E-03        -2.87793
           28885         53.4624         52.9094    -514.582E-03        -3.23129
           28886         53.2470         52.7712    -444.354E-03        -2.98874
           28887         53.1213         52.5327    -535.467E-03        -3.35498
           28888         52.8972         52.3901    -463.134E-03        -3.10471
           28889         52.7712         52.1453    -555.279E-03        -3.48365
           28890         52.5379         51.9978    -480.989E-03        -3.22554
           28891         52.4119         51.7467    -574.006E-03        -3.61700
           28892         52.1686         51.5940    -497.914E-03        -3.35098
           28893         52.0429         51.3366    -591.623E-03        -3.75474
           28894         51.7889         51.1780    -513.892E-03        -3.48074
           28895         51.6639         50.9144    -608.095E-03        -3.89656
           28896         51.3986         50.7494    -528.895E-03        -3.61453
           28897         51.2747         50.4799    -623.372E-03        -4.04214
           28898         50.9973         50.3079    -542.887E-03        -3.75207
           28899         50.8751         50.0328    -637.395E-03        -4.19115
           28900         50.5848         49.8531    -555.821E-03        -3.89305
           28901         50.4649         49.5728    -650.094E-03        -4.34325
           28902         50.1608         49.3848    -567.638E-03        -4.03716
           28903         50.0438         49.0996    -661.386E-03        -4.49807
           28904         49.7251         48.9025    -578.271E-03        -4.18406
           28905         49.6118         48.6132    -671.173E-03        -4.65523
           28906         49.2777         48.4062    -587.641E-03        -4.33341
           28907         49.1687         48.1132    -679.348E-03        -4.81432
           28908         48.8182         47.8957    -595.658E-03        -4.48482
           28909         48.7145         47.5998    -685.788E-03        -4.97490
           28910         48.3468         47.3708    -602.219E-03        -4.63791
           28911         48.2492         47.0729    -690.357E-03        -5.13651
           28912         47.8632         46.8315    -607.211E-03        -4.79224
           28913         47.7725         46.5324    -692.905E-03        -5.29865
           28914         47.3675         46.2777    -610.507E-03        -4.94736
           28915         47.2847         45.9785    -693.264E-03        -5.46077
           28916         46.8597         45.7096    -611.967E-03        -5.10279
           28917         46.7856         45.4113    -691.252E-03        -5.62231
           28918         46.3397         45.1272    -611.435E-03        -5.25799
           28919         46.2753         44.8311    -686.669E-03        -5.78264
           28920         45.8077         44.5307    -608.743E-03        -5.41239
           28921         45.7538         44.2380    -679.296E-03        -5.94110
           28922         45.2637         43.9204    -603.704E-03        -5.56539
           28923         45.2211         43.6325    -668.895E-03        -6.09696
           28924         44.7077         43.2965    -596.117E-03        -5.71633
           28925         44.6774         43.0150    -655.209E-03        -6.24946
           28926         44.1400         42.6595    -585.760E-03        -5.86450
           28927         44.1226         42.3858    -637.958E-03        -6.39776
           28928         43.5606         42.0098    -572.395E-03        -6.00913
           28929         43.5567         41.7457    -616.839E-03        -6.54096
           28930         42.9695         41.3479    -555.763E-03        -6.14939
           28931         42.9798         41.0952    -591.528E-03        -6.67811
           28932         42.3671         40.6745    -535.583E-03        -6.28439
           28933         42.3919         40.4351    -561.673E-03        -6.80816
           28934         41.7532         39.9903    -511.553E-03        -6.41318
           28935         41.7929         39.7661    -526.898E-03        -6.93000
           28936         41.1282         39.2962    -483.347E-03        -6.53473
           28937         41.1828         39.0892    -486.801E-03        -7.04246
           28938         40.4919         38.5929    -450.615E-03        -6.64793
           28939         40.5614         38.4054    -440.951E-03        -7.14425
           28940         39.8445         37.8816    -412.984E-03        -6.75160
           28941         39.9286         37.7158    -388.893E-03        -7.23401
           28942         39.1859         37.1632    -370.052E-03        -6.84446
           28943         39.2841         37.0214    -330.143E-03        -7.31030
           28944         38.5162         36.4391    -321.394E-03        -6.92516
           28945         38.6276         36.3236    -264.194E-03        -7.37159
           28946         37.8352         35.7105    -266.561E-03        -6.99224
           28947         37.9588         35.6237    -190.513E-03        -7.41624
           28948         37.1429         34.9788    -205.077E-03        -7.04418
           28949         37.2774         34.9231    -108.554E-03        -7.44254
           28950         36.4389         34.2455    -136.450E-03        -7.07932
           28951         36.5827         34.2234    -17.7533E-03        -7.44867
           28952         35.7231         33.5121    -60.1656E-03        -7.09597
           28953         35.8745         33.5261     82.4501E-03        -7.43276
           28954         34.9952         32.7805     24.2965E-03        -7.09229
           28955         35.1521         32.8328     192.608E-03        -7.39284
           28956         34.2549         32.0523     117.458E-03        -7.06641
           28957         34.4151         32.1452     313.241E-03        -7.32691
           28958         33.5019         31.3293     219.826E-03        -7.01635
           28959         33.6631         31.4652     444.810E-03        -7.23291
           28960         32.7358         30.6135     331.874E-03        -6.94012
           28961         32.8959         30.7943     587.679E-03        -7.10878
           28962         31.9566         29.9068     454.010E-03        -6.83566
           28963         32.1135         30.1343     742.060E-03        -6.95249
           28964         31.1642         29.2111     586.536E-03        -6.70092
           28965         31.3165         29.4872     907.936E-03        -6.76208
           28966         30.3589         28.5284     729.588E-03        -6.53392
           28967         30.5057         28.8545         1.08496        -6.53572
           28968         29.5416         27.8607     883.054E-03        -6.33276
           28969         29.6830         28.2380         1.27233        -6.27179
           28970         28.7136         27.2098         1.04646        -6.09572
           28971         28.8513         27.6396         1.46855        -5.96898
           28972         27.8771         26.5777         1.21880        -5.82133
           28973         28.0149         27.0610         1.67121        -5.62634
           28974         27.0357         25.9664         1.39833        -5.50851
           28975         27.1799         26.5044         1.87661        -5.24342
           28976         26.1946         25.3778         1.58224        -5.15666
           28977         26.3548         25.9721         2.07928        -4.82033
           28978         25.3608         24.8141         1.76620        -4.76581
           28979         25.5512         25.4673         2.27136        -4.35776
           28980         24.5443         24.2779         1.94385        -4.33668
           28981         24.7842         24.9940         2.44184        -3.85684
           28982         23.7584         23.7727         2.10597        -3.87074
           28983         24.0734         24.5581         2.57566        -3.31884
           28984         23.0204         23.3032         2.23957        -3.37002
           28985         23.4436         24.1677         2.65277        -2.74451
           28986         22.3527         22.8761         2.32680        -2.83667
           28987         22.9262         23.8337         2.64732        -2.13297
           28988         21.7839         22.5010         2.34387        -2.27208
           28989         22.5602         23.5706         2.52726        -1.48023
           28990         21.3497         22.1909         2.26026        -1.67549
           28991         22.3948         23.3961         2.25439    -777.305E-03
           28992         21.0952         21.9628         2.03829        -1.04211
           28993         22.4940         23.3325         1.78312    -6.46616E-03
           28994         21.0776         21.8375         1.63344    -361.038E-03
           28995         66.1241         67.9714         18.3223        -14.8546
           28996         66.3929         68.4157         19.4409        -15.0492
           28997         64.8226         67.2309         20.2166        -14.5194
           28998         67.3368         68.7099         15.9855        -14.7875
           28999         67.7508         69.2107         17.1228        -15.1870
           29000         68.2406         69.2823         13.5240        -14.2690
           29001         68.8491         69.8929         14.5039        -14.8160
           29002         68.7422         69.5795         11.2042        -13.3944
           29003         69.5124         70.2975         11.9356        -13.9859
           29004         68.8593         69.5777         9.17657        -12.3128
           29005         69.7165         70.3590         9.65589        -12.8601
           29006         68.6697         69.3168         7.48561        -11.1587
           29007         69.5391         70.1056         7.75736        -11.6124
           29008         68.2645         68.8625         6.11232        -10.0257
           29009         69.0910         69.6130         6.23326        -10.3707
           29010         67.7228         68.2804         5.01113        -8.96677
           29011         68.4741         68.9634         5.03160        -9.20919
           29012         67.1048         67.6245         4.13139        -8.00621
           29013         67.7665         68.2260         4.08959        -8.16108
           29014         66.4528         66.9346         3.42721        -7.15041
           29015         67.0223         67.4513         3.34977        -7.23483
           29016         65.7949         66.2384         2.86052        -6.39614
           29017         66.2759         66.6734         2.76511        -6.42585
           29018         65.1487         65.5538         2.40114        -5.73555
           29019         65.5485         65.9134         2.29907        -5.72371
           29020         64.5248         64.8918         2.02562        -5.15913
           29021         64.8518         65.1839         1.92390        -5.11619
           29022         63.9290         64.2586         1.71592        -4.65722
           29023         64.1917         64.4912         1.61874        -4.59124
           29024         63.3638         63.6571         1.45821        -4.22080
           29025         63.5704         63.8380         1.36795        -4.13783
           29026         62.8298         63.0881         1.24184        -3.84173
           29027         62.9876         63.2243         1.15974        -3.74628
           29028         62.3262         62.5510         1.05860        -3.51289
           29029         62.4417         62.6488     985.188E-03        -3.40825
           29030         61.8515         62.0443     902.116E-03        -3.22810
           29031         61.9305         62.1092     837.466E-03        -3.11666
           29032         61.4036         61.5661     767.396E-03        -2.98207
           29033         61.4512         61.6030     711.331E-03        -2.86549
           29034         60.9805         61.1141     650.511E-03        -2.77024
           29035         61.0010         61.1272     602.707E-03        -2.64970
           29036         60.5797         60.6859     548.347E-03        -2.58873
           29037         60.5769         60.6788     508.403E-03        -2.46498
           29038         60.1991         60.2792     458.411E-03        -2.43421
           29039         60.1761         60.2550     425.898E-03        -2.30773
           29040         59.8363         59.8916     378.702E-03        -2.30383
           29041         59.7960         59.8530     353.184E-03        -2.17486
           29042         59.4892         59.5208     307.595E-03        -2.19512
           29043         59.4339         59.4701     288.651E-03        -2.06376
           29044         59.1558         59.1647     243.767E-03        -2.10598
           29045         59.0875         59.1039     230.996E-03        -1.97220
           29046         58.8340         58.8212     186.130E-03        -2.03459
           29047         58.7546         58.7519     179.159E-03        -1.89826
           29048         58.5221         58.4884     133.787E-03        -1.97935
           29049         58.4330         58.4121     132.269E-03        -1.84029
           29050         58.2184         58.1644     85.9948E-03        -1.93890
           29051         58.1208         58.0822     89.6112E-03        -1.79686
           29052         57.9211         57.8474     42.1315E-03        -1.91203
           29053         57.8162         57.7604     50.5896E-03        -1.76675
           29054         57.6288         57.5359     1.67694E-03        -1.89769
           29055         57.5175         57.4450     14.7089E-03        -1.74888
           29056         57.3402         57.2282    -35.8065E-03        -1.89497
           29057         57.2230         57.1341    -18.4456E-03        -1.74231
           29058         57.0537         56.9230    -70.6887E-03        -1.90303
           29059         56.9314         56.8264    -49.2231E-03        -1.74622
           29060         56.7683         56.6189    -103.283E-03        -1.92116
           29061         56.6412         56.5201    -77.9181E-03        -1.75987
           29062         56.4826         56.3146    -133.854E-03        -1.94873
           29063         56.3512         56.2141    -104.780E-03        -1.78263
           29064         56.1957         56.0089    -162.628E-03        -1.98514
           29065         56.0601         55.9069    -130.019E-03        -1.81393
           29066         55.9065         55.7007    -189.796E-03        -2.02990
           29067         55.7669         55.5973    -153.816E-03        -1.85324
           29068         55.6139         55.3888    -215.522E-03        -2.08252
           29069         55.4704         55.2843    -176.322E-03        -1.90013
           29070         55.3172         55.0722    -239.943E-03        -2.14260
           29071         55.1697         54.9667    -197.665E-03        -1.95417
           29072         55.0154         54.7501    -263.176E-03        -2.20975
           29073         54.8639         54.6434    -217.956E-03        -2.01498
           29074         54.7078         54.4214    -285.318E-03        -2.28360
           29075         54.5520         54.3136    -237.285E-03        -2.08223
           29076         54.3936         54.0854    -306.449E-03        -2.36383
           29077         54.2333         53.9763    -255.728E-03        -2.15559
           29078         54.0720         53.7412    -326.636E-03        -2.45014
           29079         53.9069         53.6306    -273.348E-03        -2.23477
           29080         53.7425         53.3880    -345.931E-03        -2.54223
           29081         53.5722         53.2757    -290.195E-03        -2.31950
           29082         53.4043         53.0251    -364.374E-03        -2.63982
           29083         53.2285         52.9108    -306.309E-03        -2.40951
           29084         53.0570         52.6519    -381.994E-03        -2.74266
           29085         52.8751         52.5353    -321.719E-03        -2.50455
           29086         52.7000         52.2677    -398.809E-03        -2.85047
           29087         52.5115         52.1484    -336.445E-03        -2.60437
           29088         52.3328         51.8719    -414.827E-03        -2.96300
           29089         52.1371         51.7494    -350.498E-03        -2.70875
           29090         51.9549         51.4639    -430.048E-03        -3.08000
           29091         51.7514         51.3379    -363.882E-03        -2.81745
           29092         51.5659         51.0433    -444.461E-03        -3.20121
           29093         51.3539         50.9132    -376.590E-03        -2.93023
           29094         51.1655         50.6095    -458.047E-03        -3.32638
           29095         50.9443         50.4748    -388.612E-03        -3.04685
           29096         50.7532         50.1621    -470.778E-03        -3.45524
           29097         50.5220         50.0222    -399.925E-03        -3.16708
           29098         50.3289         49.7008    -482.617E-03        -3.58750
           29099         50.0869         49.5550    -410.503E-03        -3.29066
           29100         49.8922         49.2252    -493.518E-03        -3.72289
           29101         49.6385         49.0728    -420.309E-03        -3.41734
           29102         49.4429         48.7349    -503.425E-03        -3.86111
           29103         49.1766         48.5753    -429.300E-03        -3.54684
           29104         48.9808         48.2298    -512.276E-03        -4.00183
           29105         48.7010         48.0621    -437.425E-03        -3.67888
           29106         48.5058         47.7095    -519.994E-03        -4.14473
           29107         48.2114         47.5331    -444.623E-03        -3.81315
           29108         48.0178         47.1741    -526.497E-03        -4.28943
           29109         47.7079         46.9879    -450.828E-03        -3.94934
           29110         47.5165         46.6233    -531.689E-03        -4.43557
           29111         47.1902         46.4265    -455.961E-03        -4.08709
           29112         47.0022         46.0570    -535.465E-03        -4.58272
           29113         46.6583         45.8488    -459.937E-03        -4.22604
           29114         46.4746         45.4754    -537.708E-03        -4.73044
           29115         46.1121         45.2548    -462.660E-03        -4.36579
           29116         45.9339         44.8785    -538.287E-03        -4.87827
           29117         45.5517         44.6444    -464.022E-03        -4.50591
           29118         45.3801         44.2664    -537.061E-03        -5.02567
           29119         44.9772         44.0177    -463.906E-03        -4.64595
           29120         44.8133         43.6393    -533.873E-03        -5.17212
           29121         44.3887         43.3751    -462.184E-03        -4.78540
           29122         44.2336         42.9976    -528.553E-03        -5.31700
           29123         43.7863         42.7165    -458.714E-03        -4.92372
           29124         43.6411         42.3414    -520.913E-03        -5.45967
           29125         43.1701         42.0425    -453.341E-03        -5.06033
           29126         43.0361         41.6714    -510.752E-03        -5.59943
           29127         42.5404         41.3533    -445.896E-03        -5.19459
           29128         42.4188         40.9879    -497.849E-03        -5.73554
           29129         41.8975         40.6495    -436.196E-03        -5.32584
           29130         41.7892         40.2917    -481.965E-03        -5.86718
           29131         41.2416         39.9317    -424.041E-03        -5.45333
           29132         41.1478         39.5833    -462.843E-03        -5.99347
           29133         40.5730         39.2005    -409.215E-03        -5.57626
           29134         40.4946         38.8636    -440.204E-03        -6.11348
           29135         39.8921         38.4566    -391.484E-03        -5.69377
           29136         39.8298         38.1336    -413.748E-03        -6.22619
           29137         39.1991         37.7010    -370.594E-03        -5.80494
           29138         39.1538         37.3941    -383.152E-03        -6.33050
           29139         38.4945         36.9347    -346.273E-03        -5.90875
           29140         38.4666         36.6463    -348.070E-03        -6.42524
           29141         37.7785         36.1588    -318.226E-03        -6.00414
           29142         37.7684         35.8914    -308.133E-03        -6.50916
           29143         37.0516         35.3745    -286.140E-03        -6.08995
           29144         37.0595         35.1308    -262.948E-03        -6.58091
           29145         36.3140         34.5831    -249.676E-03        -6.16492
           29146         36.3397         34.3658    -212.099E-03        -6.63905
           29147         35.5660         33.7861    -208.475E-03        -6.22772
           29148         35.6093         33.5981    -155.146E-03        -6.68205
           29149         34.8080         32.9851    -162.157E-03        -6.27693
           29150         34.8681         32.8293    -91.6328E-03        -6.70829
           29151         34.0401         32.1820    -110.319E-03        -6.31102
           29152         34.1162         32.0612    -21.0849E-03        -6.71605
           29153         33.2626         31.3784    -52.5435E-03        -6.32839
           29154         33.3535         31.2957     56.9789E-03        -6.70354
           29155         32.4757         30.5765     11.6045E-03        -6.32732
           29156         32.5799         30.5348     143.040E-03        -6.66886
           29157         31.6795         29.7782     82.5652E-03        -6.30602
           29158         31.7952         29.7805     237.563E-03        -6.61007
           29159         30.8741         28.9860     160.777E-03        -6.26261
           29160         30.9996         29.0349     340.978E-03        -6.52515
           29161         30.0598         28.2019     246.662E-03        -6.19514
           29162         30.1930         28.3003     453.646E-03        -6.41208
           29163         29.2367         27.4285     340.603E-03        -6.10162
           29164         29.3758         27.5789     575.821E-03        -6.26883
           29165         28.4052         26.6681     442.913E-03        -5.98004
           29166         28.5486         26.8728     707.582E-03        -6.09343
           29167         27.5659         25.9233     553.786E-03        -5.82840
           29168         27.7125         26.1843     848.752E-03        -5.88405
           29169         26.7197         25.1965     673.238E-03        -5.64479
           29170         26.8692         25.5156     998.770E-03        -5.63905
           29171         25.8682         24.4902     801.004E-03        -5.42745
           29172         26.0217         24.8688         1.15652        -5.35709
           29173         25.0136         23.8067     936.405E-03        -5.17488
           29174         25.1739         24.2460         1.32007        -5.03732
           29175         24.1594         23.1485         1.07814        -4.88598
           29176         24.3319         23.6493         1.48632        -4.67945
           29177         23.3102         22.5176         1.22401        -4.56018
           29178         23.5036         23.0811         1.65054        -4.28399
           29179         22.4730         21.9164         1.37047        -4.19769
           29180         22.7004         22.5440         1.80561        -3.85237
           29181         21.6572         21.3474         1.51207        -3.79970
           29182         21.9371         22.0418         1.94117        -3.38696
           29183         20.8755         20.8134         1.64054        -3.36857
           29184         21.2331         21.5795         2.04239        -2.89102
           29185         20.1449         20.3184         1.74368        -2.90787
           29186         20.6136         21.1646         2.08860        -2.36804
           29187         19.4875         19.8683         1.80386        -2.42222
           29188         20.1106         20.8081         2.05195        -1.82071
           29189         18.9321         19.4720         1.79635        -1.91640
           29190         19.7645         20.5252         1.89648        -1.24902
           29191         18.5151         19.1427         1.68788        -1.39389
           29192         19.6267         20.3358         1.57791    -648.118E-03
           29193         18.2831         18.8986         1.43585    -854.536E-03
           29194         19.7660         20.2660         1.04120    -4.30619E-03
           29195         18.2962         18.7633     988.097E-03    -292.204E-03
           29196         68.4024         69.9375         18.4762        -15.6891
           29197         68.7939         70.5670         19.8469        -15.9116
           29198         66.8281         69.0585         20.7862        -15.2786
           29199         69.7830         70.7786         15.5780        -15.4916
           29200         70.4059         71.5002         16.9341        -16.0077
           29201         70.6302         71.3099         12.6382        -14.6631
           29202         71.5367         72.1980         13.7080        -15.3486
           29203         70.8780         71.4067         10.0326        -13.4228
           29204         71.9742         72.4252         10.7277        -14.1036
           29205         70.6395         71.1048         7.90259        -12.0210
           29206         71.7875         72.1590         8.27283        -12.5837
           29207         70.0742         70.5118         6.23458        -10.6336
           29208         71.1668         71.5148         6.37581        -11.0403
           29209         69.3200         69.7400         4.95201        -9.35285
           29210         70.3001         70.6406         4.95138        -9.61359
           29211         68.4765         68.8784         3.96937        -8.21455
           29212         69.3230         69.6559         3.88889        -8.35647
           29213         67.6073         67.9880         3.21328        -7.22310
           29214         68.3198         68.6407         3.09278        -7.27524
           29215         66.7507         67.1069         2.62636        -6.36838
           29216         67.3394         67.6435         2.48989        -6.35569
           29217         65.9280         66.2575         2.16576        -5.63493
           29218         66.4070         66.6909         2.02714        -5.57678
           29219         65.1501         65.4517         1.79997        -5.00648
           29220         65.5340         65.7956         1.66684        -4.91722
           29221         64.4213         64.6945         1.50598        -4.46791
           29222         64.7237         64.9621         1.38224        -4.35786
           29223         63.7418         63.9870         1.26689        -4.00595
           29224         63.9751         64.1900         1.15429        -3.88238
           29225         63.1099         63.3278         1.07023        -3.60931
           29226         63.2849         63.4767     969.312E-03        -3.47726
           29227         62.5228         62.7144     906.716E-03        -3.26849
           29228         62.6484         62.8178     817.327E-03        -3.13140
           29229         61.9768         62.1432     769.364E-03        -2.97558
           29230         62.0607         62.2087     690.999E-03        -2.83573
           29231         61.4682         61.6107     652.865E-03        -2.72399
           29232         61.5171         61.6445     584.853E-03        -2.58285
           29233         60.9932         61.1130     553.146E-03        -2.50823
           29234         61.0126         61.1206     494.757E-03        -2.36668
           29235         60.5484         60.6466     467.050E-03        -2.32373
           29236         60.5428         60.6324     417.555E-03        -2.18223
           29237         60.1301         60.2080     392.106E-03        -2.16666
           29238         60.1036         60.1757     350.809E-03        -2.02538
           29239         59.7353         59.7939     326.361E-03        -2.03379
           29240         59.6911         59.7468     292.616E-03        -1.89270
           29241         59.3609         59.4012     268.261E-03        -1.92242
           29242         59.3019         59.3420     241.478E-03        -1.78134
           29243         59.0043         59.0270     216.558E-03        -1.83023
           29244         58.9328         58.9580     196.202E-03        -1.68888
           29245         58.6627         58.6688     170.240E-03        -1.75527
           29246         58.5808         58.5919     155.830E-03        -1.61329
           29247         58.3339         58.3240     128.484E-03        -1.69586
           29248         58.2433         58.2409     119.590E-03        -1.55286
           29249         58.0157         57.9904     90.6130E-03        -1.65056
           29250         57.9178         57.9024     86.8490E-03        -1.50612
           29251         57.7060         57.6659     56.0702E-03        -1.61812
           29252         57.6020         57.5741     57.0911E-03        -1.47181
           29253         57.4030         57.3485     24.3916E-03        -1.59748
           29254         57.2940         57.2539     29.8889E-03        -1.44885
           29255         57.1050         57.0363    -4.80962E-03        -1.58770
           29256         56.9917         56.9398     4.88759E-03        -1.43629
           29257         56.8103         56.7278    -31.8574E-03        -1.58795
           29258         56.6935         56.6300    -18.2086E-03        -1.43333
           29259         56.5175         56.4212    -57.0248E-03        -1.59753
           29260         56.3976         56.3226    -39.6478E-03        -1.43925
           29261         56.2252         56.1151    -80.5422E-03        -1.61579
           29262         56.1026         56.0162    -59.6387E-03        -1.45344
           29263         55.9319         55.8082    -102.604E-03        -1.64218
           29264         55.8070         55.7093    -78.3576E-03        -1.47534
           29265         55.6367         55.4991    -123.376E-03        -1.67621
           29266         55.5096         55.4004    -95.9533E-03        -1.50447
           29267         55.3382         55.1865    -142.999E-03        -1.71743
           29268         55.2091         55.0882    -112.552E-03        -1.54039
           29269         55.0354         54.8694    -161.591E-03        -1.76543
           29270         54.9043         54.7716    -128.261E-03        -1.58272
           29271         54.7273         54.5466    -179.252E-03        -1.81986
           29272         54.5941         54.4493    -143.171E-03        -1.63112
           29273         54.4130         54.2171    -196.067E-03        -1.88039
           29274         54.2776         54.1202    -157.357E-03        -1.68526
           29275         54.0915         53.8800    -212.107E-03        -1.94671
           29276         53.9538         53.7835    -170.884E-03        -1.74486
           29277         53.7621         53.5343    -227.431E-03        -2.01855
           29278         53.6218         53.4380    -183.805E-03        -1.80966
           29279         53.4240         53.1791    -242.085E-03        -2.09564
           29280         53.2807         53.0828    -196.163E-03        -1.87941
           29281         53.0764         52.8137    -256.109E-03        -2.17775
           29282         52.9297         52.7171    -207.994E-03        -1.95388
           29283         52.7186         52.4372    -269.530E-03        -2.26463
           29284         52.5681         52.3401    -219.325E-03        -2.03286
           29285         52.3501         52.0490    -282.370E-03        -2.35607
           29286         52.1953         51.9509    -230.177E-03        -2.11614
           29287         51.9701         51.6483    -294.641E-03        -2.45184
           29288         51.8104         51.5489    -240.562E-03        -2.20353
           29289         51.5781         51.2345    -306.350E-03        -2.55173
           29290         51.4130         51.1334    -250.490E-03        -2.29481
           29291         51.1736         50.8070    -317.496E-03        -2.65554
           29292         51.0024         50.7036    -259.961E-03        -2.38982
           29293         50.7562         50.3653    -328.070E-03        -2.76303
           29294         50.5781         50.2591    -268.972E-03        -2.48834
           29295         50.3254         49.9087    -338.059E-03        -2.87401
           29296         50.1397         49.7992    -277.514E-03        -2.59019
           29297         49.8808         49.4369    -347.442E-03        -2.98824
           29298         49.6866         49.3234    -285.571E-03        -2.69516
           29299         49.4220         48.9494    -356.191E-03        -3.10548
           29300         49.2185         48.8313    -293.125E-03        -2.80305
           29301         48.9488         48.4458    -364.272E-03        -3.22551
           29302         48.7351         48.3223    -300.150E-03        -2.91365
           29303         48.4608         47.9257    -371.646E-03        -3.34806
           29304         48.2360         47.7962    -306.614E-03        -3.02673
           29305         47.9579         47.3890    -378.264E-03        -3.47287
           29306         47.7209         47.2526    -312.481E-03        -3.14205
           29307         47.4399         46.8352    -384.073E-03        -3.59965
           29308         47.1897         46.6911    -317.709E-03        -3.25936
           29309         46.9066         46.2643    -389.009E-03        -3.72809
           29310         46.6421         46.1116    -322.249E-03        -3.37839
           29311         46.3579         45.6761    -393.004E-03        -3.85786
           29312         46.0780         45.5138    -326.046E-03        -3.49886
           29313         45.7939         45.0705    -395.978E-03        -3.98862
           29314         45.4973         44.8977    -329.039E-03        -3.62044
           29315         45.2144         44.4475    -397.846E-03        -4.11998
           29316         44.9001         44.2632    -331.158E-03        -3.74281
           29317         44.6196         43.8071    -398.511E-03        -4.25154
           29318         44.2864         43.6102    -332.329E-03        -3.86560
           29319         44.0095         43.1495    -397.868E-03        -4.38284
           29320         43.6561         42.9389    -332.466E-03        -3.98842
           29321         43.3843         42.4749    -395.801E-03        -4.51341
           29322         43.0095         42.2494    -331.477E-03        -4.11085
           29323         42.7442         41.7835    -392.182E-03        -4.64273
           29324         42.3468         41.5419    -329.261E-03        -4.23242
           29325         42.0894         41.0757    -386.873E-03        -4.77024
           29326         41.6682         40.8167    -325.705E-03        -4.35264
           29327         41.4202         40.3519    -379.721E-03        -4.89532
           29328         40.9740         40.0742    -320.689E-03        -4.47096
           29329         40.7370         39.6127    -370.563E-03        -5.01732
           29330         40.2645         39.3150    -314.078E-03        -4.58679
           29331         40.0400         38.8587    -359.218E-03        -5.13552
           29332         39.5403         38.5396    -305.730E-03        -4.69951
           29333         39.3298         38.0906    -345.493E-03        -5.24915
           29334         38.8017         37.7488    -295.485E-03        -4.80841
           29335         38.6067         37.3093    -329.176E-03        -5.35737
           29336         38.0493         36.9432    -283.173E-03        -4.91275
           29337         37.8712         36.5158    -310.040E-03        -5.45928
           29338         37.2837         36.1240    -268.609E-03        -5.01171
           29339         37.1239         35.7111    -287.838E-03        -5.55389
           29340         36.5054         35.2921    -251.592E-03        -5.10442
           29341         36.3652         34.8965    -262.307E-03        -5.64017
           29342         35.7151         34.4488    -231.905E-03        -5.18993
           29343         35.5956         34.0734    -233.161E-03        -5.71697
           29344         34.9136         33.5954    -209.314E-03        -5.26720
           29345         34.8157         33.2432    -200.096E-03        -5.78307
           29346         34.1015         32.7335    -183.567E-03        -5.33513
           29347         34.0260         32.4075    -162.787E-03        -5.83717
           29348         33.2796         31.8646    -154.394E-03        -5.39253
           29349         33.2269         31.5682    -120.889E-03        -5.87787
           29350         32.4486         30.9905    -121.506E-03        -5.43812
           29351         32.4191         30.7271    -74.0397E-03        -5.90367
           29352         31.6093         30.1133    -84.5962E-03        -5.47053
           29353         31.6029         29.8864    -21.8572E-03        -5.91298
           29354         30.7624         29.2351    -43.3407E-03        -5.48828
           29355         30.7788         29.0483     36.0505E-03        -5.90413
           29356         29.9087         28.3583     2.60039E-03        -5.48982
           29357         29.9472         28.2151     100.083E-03        -5.87534
           29358         29.0489         27.4851     53.5779E-03        -5.47348
           29359         29.1086         27.3893     170.637E-03        -5.82474
           29360         28.1838         26.6185     109.949E-03        -5.43751
           29361         28.2635         26.5736     248.090E-03        -5.75043
           29362         27.3141         25.7610     172.067E-03        -5.38008
           29363         27.4123         25.7705     332.785E-03        -5.65043
           29364         26.4406         24.9156     240.269E-03        -5.29930
           29365         26.5559         24.9830     424.990E-03        -5.52276
           29366         25.5642         24.0854     314.852E-03        -5.19322
           29367         25.6951         24.2137     524.858E-03        -5.36545
           29368         24.6860         23.2734     396.041E-03        -5.05988
           29369         24.8312         23.4657     632.359E-03        -5.17663
           29370         23.8073         22.4829     483.945E-03        -4.89737
           29371         23.9664         22.7415     747.180E-03        -4.95463
           29372         22.9299         21.7170     578.483E-03        -4.70390
           29373         23.1032         22.0439     868.576E-03        -4.69803
           29374         22.0561         20.9788     679.276E-03        -4.47787
           29375         22.2457         21.3756     995.160E-03        -4.40591
           29376         21.1894         20.2712     785.489E-03        -4.21807
           29377         21.3994         20.7389         1.12458        -4.07797
           29378         20.3343         19.5970     895.588E-03        -3.92380
           29379         20.5721         20.1363         1.25305        -3.71485
           29380         19.4972         18.9590         1.00697        -3.59523
           29381         19.7741         19.5702         1.37465        -3.31840
           29382         18.6870         18.3594         1.11538        -3.23363
           29383         19.0198         19.0436         1.48030        -2.89199
           29384         17.9153         17.8008         1.21409        -2.84186
           29385         18.3276         18.5605         1.55630        -2.44063
           29386         17.1982         17.2862         1.29253        -2.42470
           29387         17.7220         18.1273         1.58241        -1.97083
           29388         16.5565         16.8200         1.33443        -1.98908
           29389         17.2349         17.7540         1.52968        -1.48951
           29390         16.0179         16.4097         1.31532        -1.54364
           29391         16.9072         17.4560         1.35865        -1.00182
           29392         15.6185         16.0677         1.20007        -1.09706
           29393         16.7916         17.2548         1.01905    -508.411E-03
           29394         15.4053         15.8126     941.471E-03    -655.066E-03
           29395         16.9608         17.1796     446.466E-03    -1.44703E-03
           29396         15.4398         15.6697     480.380E-03    -218.318E-03
           29397         71.4333         72.5955         18.5885        -16.6985
           29398         71.9943         73.4905         20.3478        -16.9673
           29399         69.4592         71.5157         21.5498        -16.1951
           29400         72.9622         73.5283         14.8351        -16.2047
           29401         73.9570         74.6223         16.4905        -16.9290
           29402         73.5545         73.8685         11.2966        -14.8386
           29403         74.9758         75.2301         12.4093        -15.7201
           29404         73.2965         73.5464         8.45527        -13.0853
           29405         74.8677         75.0095         9.00905        -13.8243
           29406         72.4851         72.7386         6.34246        -11.3183
           29407         73.9855         74.1331         6.51747        -11.8156
           29408         71.3987         71.6661         4.81221        -9.72052
           29409         72.7183         72.8941         4.77442        -9.99381
           29410         70.2141         70.4887         3.70785        -8.34596
           29411         71.3176         71.5152         3.56728        -8.44907
           29412         69.0299         69.3026         2.90294        -7.18879
           29413         69.9284         70.1356         2.72181        -7.17582
           29414         67.8975         68.1606         2.30727        -6.22239
           29415         68.6158         68.8222         2.11769        -6.13427
           29416         66.8396         67.0879         1.85888        -5.41621
           29417         67.4057         67.6045         1.67668        -5.28186
           29418         65.8637         66.0941         1.51543        -4.74213
           29419         66.3037         66.4907         1.34757        -4.58087
           29420         64.9693         65.1803         1.24793        -4.17641
           29421         65.3057         65.4785         1.09688        -4.00087
           29422         64.1519         64.3429         1.03626        -3.69967
           29423         64.4034         64.5609     902.253E-03        -3.51792
           29424         63.4053         63.5764     866.278E-03        -3.29635
           29425         63.5872         63.7290     748.490E-03        -3.11343
           29426         62.7226         62.8743     727.901E-03        -2.95401
           29427         62.8474         62.9738     625.067E-03        -2.77296
           29428         62.0970         62.2301     613.819E-03        -2.66270
           29429         62.1751         62.2865     524.555E-03        -2.48521
           29430         61.5222         61.6376     518.657E-03        -2.41445
           29431         61.5618         61.6589     441.610E-03        -2.24135
           29432         60.9921         61.0907     438.411E-03        -2.20280
           29433         61.0002         61.0836     372.323E-03        -2.03435
           29434         60.5014         60.5840     370.053E-03        -2.02252
           29435         60.4835         60.5540     313.796E-03        -1.85861
           29436         60.0450         60.1127     311.270E-03        -1.86934
           29437         60.0059         60.0643     263.842E-03        -1.70961
           29438         59.6186         59.6721     260.270E-03        -1.73974
           29439         59.5621         59.6090     220.793E-03        -1.58368
           29440         59.2181         59.2582     215.654E-03        -1.63080
           29441         59.1474         59.1835     183.360E-03        -1.47782
           29442         58.8399         58.8674     176.315E-03        -1.54010
           29443         58.7578         58.7836     150.534E-03        -1.38956
           29444         58.4807         58.4961     141.371E-03        -1.46561
           29445         58.3894         58.4055     121.521E-03        -1.31683
           29446         58.1375         58.1415     110.113E-03        -1.40560
           29447         58.0389         58.0457     95.6846E-03        -1.25791
           29448         57.8076         57.8007     81.9655E-03        -1.35862
           29449         57.7032         57.7013     72.5152E-03        -1.21135
           29450         57.4886         57.4711     56.4593E-03        -1.32344
           29451         57.3797         57.3694     51.5985E-03        -1.17594
           29452         57.1782         57.1505     33.2085E-03        -1.29898
           29453         57.0659         57.0474     32.5962E-03        -1.15061
           29454         56.8742         56.8366     11.8936E-03        -1.28434
           29455         56.7595         56.7331     15.2302E-03        -1.13448
           29456         56.5748         56.5276    -7.75084E-03        -1.27873
           29457         56.4585         56.4243    -730.009E-06        -1.12678
           29458         56.2783         56.2215    -25.9468E-03        -1.28144
           29459         56.1608         56.1191    -15.4760E-03        -1.12684
           29460         55.9830         55.9168    -42.8806E-03        -1.29189
           29461         55.8648         55.8156    -29.1681E-03        -1.13408
           29462         55.6873         55.6117    -58.7092E-03        -1.30955
           29463         55.5688         55.5122    -41.9409E-03        -1.14800
           29464         55.3899         55.3049    -73.5652E-03        -1.33395
           29465         55.2713         55.2073    -53.9079E-03        -1.16816
           29466         55.0895         54.9949    -87.5608E-03        -1.36468
           29467         54.9709         54.8994    -65.1646E-03        -1.19416
           29468         54.7847         54.6805    -100.791E-03        -1.40137
           29469         54.6663         54.5872    -75.7922E-03        -1.22566
           29470         54.4746         54.3604    -113.336E-03        -1.44370
           29471         54.3563         54.2693    -85.8590E-03        -1.26235
           29472         54.1579         54.0335    -125.264E-03        -1.49137
           29473         54.0396         53.9446    -95.4230E-03        -1.30394
           29474         53.8336         53.6987    -136.632E-03        -1.54410
           29475         53.7152         53.6119    -104.533E-03        -1.35021
           29476         53.5009         53.3550    -147.487E-03        -1.60166
           29477         53.3821         53.2702    -113.230E-03        -1.40090
           29478         53.1587         53.0014    -157.869E-03        -1.66382
           29479         53.0393         52.9184    -121.547E-03        -1.45583
           29480         52.8062         52.6370    -167.811E-03        -1.73037
           29481         52.6858         52.5556    -129.513E-03        -1.51478
           29482         52.4427         52.2609    -177.337E-03        -1.80111
           29483         52.3209         52.1808    -137.149E-03        -1.57759
           29484         52.0673         51.8723    -186.466E-03        -1.87585
           29485         51.9436         51.7931    -144.474E-03        -1.64409
           29486         51.6793         51.4705    -195.214E-03        -1.95441
           29487         51.5533         51.3918    -151.499E-03        -1.71411
           29488         51.2782         51.0546    -203.587E-03        -2.03662
           29489         51.1492         50.9761    -158.235E-03        -1.78749
           29490         50.8632         50.6241    -211.591E-03        -2.12230
           29491         50.7307         50.5453    -164.684E-03        -1.86409
           29492         50.4338         50.1781    -219.223E-03        -2.21128
           29493         50.2970         50.0985    -170.849E-03        -1.94376
           29494         49.9894         49.7163    -226.479E-03        -2.30340
           29495         49.8476         49.6353    -176.726E-03        -2.02633
           29496         49.5295         49.2379    -233.349E-03        -2.39846
           29497         49.3820         49.1550    -182.310E-03        -2.11167
           29498         49.0537         48.7425    -239.818E-03        -2.49630
           29499         48.8996         48.6569    -187.591E-03        -2.19960
           29500         48.5616         48.2295    -245.867E-03        -2.59673
           29501         48.4000         48.1407    -192.555E-03        -2.28998
           29502         48.0528         47.6986    -251.474E-03        -2.69955
           29503         47.8828         47.6057    -197.187E-03        -2.38263
           29504         47.5270         47.1493    -256.609E-03        -2.80455
           29505         47.3475         47.0516    -201.465E-03        -2.47737
           29506         46.9839         46.5813    -261.242E-03        -2.91152
           29507         46.7939         46.4780    -205.366E-03        -2.57401
           29508         46.4233         45.9944    -265.334E-03        -3.02021
           29509         46.2217         45.8846    -208.862E-03        -2.67236
           29510         45.8450         45.3882    -268.842E-03        -3.13038
           29511         45.6307         45.2710    -211.921E-03        -2.77220
           29512         45.2489         44.7627    -271.718E-03        -3.24177
           29513         45.0206         44.6371    -214.508E-03        -2.87329
           29514         44.6349         44.1176    -273.909E-03        -3.35406
           29515         44.3914         43.9826    -216.582E-03        -2.97539
           29516         44.0030         43.4530    -275.354E-03        -3.46697
           29517         43.7431         43.3075    -218.098E-03        -3.07822
           29518         43.3533         42.7689    -275.988E-03        -3.58013
           29519         43.0756         42.6117    -219.006E-03        -3.18149
           29520         42.6859         42.0653    -275.737E-03        -3.69319
           29521         42.3890         41.8953    -219.251E-03        -3.28489
           29522         42.0009         41.3425    -274.520E-03        -3.80573
           29523         41.6834         41.1584    -218.772E-03        -3.38807
           29524         41.2986         40.6006    -272.250E-03        -3.91734
           29525         40.9591         40.4012    -217.501E-03        -3.49065
           29526         40.5793         39.8401    -268.829E-03        -4.02752
           29527         40.2163         39.6240    -215.364E-03        -3.59222
           29528         39.8433         39.0613    -264.152E-03        -4.13578
           29529         39.4555         38.8272    -212.282E-03        -3.69235
           29530         39.0911         38.2649    -258.103E-03        -4.24155
           29531         38.6770         38.0112    -208.166E-03        -3.79053
           29532         38.3233         37.4514    -250.557E-03        -4.34422
           29533         37.8814         37.1767    -202.920E-03        -3.88625
           29534         37.5403         36.6217    -241.378E-03        -4.44313
           29535         37.0692         36.3243    -196.438E-03        -3.97893
           29536         36.7428         35.7766    -230.415E-03        -4.53757
           29537         36.2413         35.4551    -188.606E-03        -4.06795
           29538         35.9316         34.9173    -217.508E-03        -4.62677
           29539         35.3983         34.5699    -179.299E-03        -4.15263
           29540         35.1073         34.0447    -202.481E-03        -4.70988
           29541         34.5411         33.6698    -168.382E-03        -4.23223
           29542         34.2710         33.1603    -185.147E-03        -4.78599
           29543         33.6707         32.7562    -155.708E-03        -4.30595
           29544         33.4233         32.2656    -165.300E-03        -4.85412
           29545         32.7881         31.8305    -141.117E-03        -4.37292
           29546         32.5654         31.3622    -142.720E-03        -4.91321
           29547         31.8945         30.8944    -124.436E-03        -4.43220
           29548         31.6981         30.4520    -117.170E-03        -4.96210
           29549         30.9909         29.9496    -105.479E-03        -4.48278
           29550         30.8225         29.5368    -88.3991E-03        -4.99956
           29551         30.0787         28.9982    -84.0465E-03        -4.52354
           29552         29.9397         28.6190    -56.1364E-03        -5.02427
           29553         29.1592         28.0424    -59.9219E-03        -4.55331
           29554         29.0507         27.7008    -20.0972E-03        -5.03480
           29555         28.2338         27.0846    -32.8757E-03        -4.57080
           29556         28.1565         26.7849     20.0167E-03        -5.02964
           29557         27.3038         26.1275    -2.66413E-03        -4.57465
           29558         27.2584         25.8741     64.5144E-03        -5.00719
           29559         26.3708         25.1739     30.9689E-03        -4.56339
           29560         26.3574         24.9712     113.710E-03        -4.96573
           29561         25.4362         24.2269     68.2894E-03        -4.53546
           29562         25.4547         24.0795     167.915E-03        -4.90349
           29563         24.5017         23.2898     109.568E-03        -4.48919
           29564         24.5514         23.2022     227.422E-03        -4.81861
           29565         23.5687         22.3661     155.074E-03        -4.42287
           29566         23.6491         22.3427     292.488E-03        -4.70920
           29567         22.6389         21.4595     205.059E-03        -4.33467
           29568         22.7490         21.5047     363.303E-03        -4.57335
           29569         21.7142         20.5740     259.741E-03        -4.22276
           29570         21.8531         20.6917     439.940E-03        -4.40920
           29571         20.7966         19.7135     319.277E-03        -4.08527
           29572         20.9637         19.9073     522.291E-03        -4.21500
           29573         19.8883         18.8820     383.710E-03        -3.92041
           29574         20.0836         19.1552     609.952E-03        -3.98926
           29575         18.9921         18.0838     452.905E-03        -3.72651
           29576         19.2169         18.4386     702.066E-03        -3.73086
           29577         18.1116         17.3227     526.433E-03        -3.50220
           29578         18.3688         17.7609     797.064E-03        -3.43933
           29579         17.2515         16.6026     603.401E-03        -3.24654
           29580         17.5466         17.1247     892.272E-03        -3.11511
           29581         16.4176         15.9268     682.165E-03        -2.95938
           29582         16.7600         16.5328     983.278E-03        -2.76005
           29583         15.6182         15.2984     759.883E-03        -2.64170
           29584         16.0217         15.9874         1.06295        -2.37789
           29585         14.8639         14.7197     831.748E-03        -2.29621
           29586         15.3488         15.4912         1.11984        -1.97489
           29587         14.1688         14.1929     889.760E-03        -1.92812
           29588         14.7635         15.0485         1.13572        -1.56034
           29589         13.5512         13.7203     920.539E-03        -1.54605
           29590         14.2957         14.6673         1.08213        -1.14608
           29591         13.0359         13.3067     901.940E-03        -1.16241
           29592         13.9855         14.3618     916.945E-03    -743.928E-03
           29593         12.6562         12.9617     798.512E-03    -792.555E-03
           29594         13.8858         14.1544     583.835E-03    -360.989E-03
           29595         12.4589         12.7045     558.928E-03    -449.789E-03
           29596         14.0718         14.0770     10.3918E-03     1.17742E-03
           29597         12.5048         12.5607     117.342E-03    -141.119E-03
           29598         75.6876         76.3864         18.5014        -17.9321
           29599         76.5919         77.7734         20.9519        -18.3314
           29600         73.0025         74.9011         22.6694        -17.3517
           29601         77.2535         77.3357         13.4124        -16.7793
           29602         78.9319         79.0746         15.3623        -17.8532
           29603         77.0680         77.0624         9.28490        -14.4933
           29604         79.2889         79.1761         10.2648        -15.5480
           29605         75.8364         75.8821         6.41157        -12.0896
           29606         78.0623         77.9762         6.64421        -12.7461
           29607         74.1813         74.2883         4.53382        -10.0061
           29608         76.0401         76.0416         4.41519        -10.2635
           29609         72.4418         72.5889         3.29751        -8.30964
           29610         73.9209         73.9849         3.05740        -8.31437
           29611         70.7802         70.9463         2.46280        -6.95513
           29612         71.9217         72.0189         2.19291        -6.81011
           29613         69.2543         69.4254         1.88483        -5.87572
           29614         70.1224         70.2350         1.62734        -5.65227
           29615         67.8784         68.0458         1.47274        -5.00993
           29616         68.5315         68.6479         1.24093        -4.74968
           29617         66.6473         66.8059         1.17129        -4.30940
           29618         67.1324         67.2462     968.289E-03        -4.03652
           29619         65.5482         65.6954     945.356E-03        -3.73722
           29620         65.9022         66.0098     769.776E-03        -3.46517
           29621         64.5664         64.7008     772.342E-03        -3.26572
           29622         64.8176         64.9172     621.359E-03        -3.00172
           29623         63.6873         63.8086     637.247E-03        -2.87414
           29624         63.8575         63.9482     507.751E-03        -2.62172
           29625         62.8976         63.0060     529.901E-03        -2.54675
           29626         63.0037         63.0853     418.979E-03        -2.30732
           29627         62.1855         62.2813     443.250E-03        -2.27159
           29628         62.2407         62.3132     348.332E-03        -2.04530
           29629         61.5405         61.6243     372.297E-03        -2.03938
           29630         61.5551         61.6189     291.186E-03        -1.82571
           29631         60.9536         61.0261     313.439E-03        -1.84292
           29632         60.9359         60.9914     244.280E-03        -1.64092
           29633         60.4169         60.4787     264.028E-03        -1.67651
           29634         60.3735         60.4210     205.266E-03        -1.48507
           29635         59.9235         59.9752     222.091E-03        -1.53563
           29636         59.8597         59.8998     172.421E-03        -1.35352
           29637         59.4675         59.5097     186.135E-03        -1.41661
           29638         59.3875         59.4206     144.464E-03        -1.24263
           29639         59.0434         59.0767     155.015E-03        -1.31651
           29640         58.9508         58.9773     120.422E-03        -1.14944
           29641         58.6466         58.6715     127.842E-03        -1.23290
           29642         58.5444         58.5647     99.5507E-03        -1.07159
           29643         58.2731         58.2901     103.919E-03        -1.16377
           29644         58.1636         58.1780     81.2714E-03        -1.00711
           29645         57.9190         57.9286     82.6935E-03        -1.10748
           29646         57.8042         57.8131     65.1295E-03    -954.427E-03
           29647         57.5812         57.5836     63.7232E-03        -1.06262
           29648         57.4628         57.4664     50.7640E-03    -912.187E-03
           29649         57.2566         57.2523     46.6509E-03        -1.02802
           29650         57.1359         57.1346     37.8860E-03    -879.283E-03
           29651         56.9426         56.9317     31.1861E-03        -1.00269
           29652         56.8208         56.8146     26.2616E-03    -854.775E-03
           29653         56.6368         56.6196     17.0908E-03    -985.784E-03
           29654         56.5147         56.5039     15.7004E-03    -837.866E-03
           29655         56.3368         56.3135     4.16861E-03    -976.574E-03
           29656         56.2152         56.2000     6.04622E-03    -827.878E-03
           29657         56.0407         56.0114    -7.74336E-03    -974.435E-03
           29658         55.9202         55.9006    -2.83000E-03    -824.231E-03
           29659         55.7467         55.7115    -18.7809E-03    -978.826E-03
           29660         55.6277         55.6038    -11.0354E-03    -826.422E-03
           29661         55.4529         55.4118    -29.0580E-03    -989.275E-03
           29662         55.3359         55.3077    -18.6596E-03    -834.018E-03
           29663         55.1577         55.1109    -38.6703E-03        -1.00537
           29664         55.0429         55.0105    -25.7775E-03    -846.641E-03
           29665         54.8597         54.8070    -47.6986E-03        -1.02675
           29666         54.7473         54.7106    -32.4523E-03    -863.961E-03
           29667         54.5575         54.4989    -56.2110E-03        -1.05310
           29668         54.4475         54.4065    -38.7372E-03    -885.687E-03
           29669         54.2498         54.1851    -64.2653E-03        -1.08412
           29670         54.1422         54.0969    -44.6772E-03    -911.562E-03
           29671         53.9353         53.8644    -71.9103E-03        -1.11958
           29672         53.8301         53.7803    -50.3104E-03    -941.358E-03
           29673         53.6129         53.5357    -79.1872E-03        -1.15924
           29674         53.5100         53.4555    -55.6688E-03    -974.870E-03
           29675         53.2815         53.1976    -86.1304E-03        -1.20289
           29676         53.1807         53.1214    -60.7794E-03        -1.01192
           29677         52.9401         52.8493    -92.7689E-03        -1.25034
           29678         52.8411         52.7767    -65.6650E-03        -1.05233
           29679         52.5877         52.4897    -99.1265E-03        -1.30144
           29680         52.4901         52.4206    -70.3441E-03        -1.09595
           29681         52.2233         52.1178    -105.222E-03        -1.35600
           29682         52.1270         52.0519    -74.8321E-03        -1.14265
           29683         51.8462         51.7327    -111.072E-03        -1.41389
           29684         51.7506         51.6698    -79.1415E-03        -1.19229
           29685         51.4555         51.3336    -116.687E-03        -1.47496
           29686         51.3601         51.2732    -83.2816E-03        -1.24475
           29687         51.0504         50.9196    -122.075E-03        -1.53907
           29688         50.9548         50.8613    -87.2595E-03        -1.29992
           29689         50.6302         50.4900    -127.243E-03        -1.60609
           29690         50.5338         50.4334    -91.0799E-03        -1.35766
           29691         50.1942         50.0439    -132.190E-03        -1.67590
           29692         50.0963         49.9886    -94.7454E-03        -1.41789
           29693         49.7417         49.5808    -136.918E-03        -1.74835
           29694         49.6417         49.5262    -98.2562E-03        -1.48048
           29695         49.2721         49.1000    -141.422E-03        -1.82332
           29696         49.1693         49.0455    -101.611E-03        -1.54533
           29697         48.7850         48.6008    -145.697E-03        -1.90068
           29698         48.6785         48.5458    -104.805E-03        -1.61233
           29699         48.2797         48.0827    -149.732E-03        -1.98029
           29700         48.1687         48.0265    -107.835E-03        -1.68136
           29701         47.7558         47.5451    -153.517E-03        -2.06200
           29702         47.6393         47.4871    -110.691E-03        -1.75230
           29703         47.2128         46.9876    -157.038E-03        -2.14566
           29704         47.0900         46.9270    -113.365E-03        -1.82502
           29705         46.6504         46.4097    -160.275E-03        -2.23112
           29706         46.5202         46.3457    -115.844E-03        -1.89941
           29707         46.0683         45.8111    -163.211E-03        -2.31821
           29708         45.9296         45.7428    -118.116E-03        -1.97531
           29709         45.4660         45.1914    -165.820E-03        -2.40674
           29710         45.3178         45.1179    -120.164E-03        -2.05257
           29711         44.8436         44.5503    -168.077E-03        -2.49652
           29712         44.6845         44.4707    -121.971E-03        -2.13105
           29713         44.2006         43.8876    -169.952E-03        -2.58734
           29714         44.0295         43.8009    -123.515E-03        -2.21056
           29715         43.5371         43.2032    -171.410E-03        -2.67897
           29716         43.3527         43.1082    -124.774E-03        -2.29092
           29717         42.8530         42.4969    -172.416E-03        -2.77117
           29718         42.6539         42.3926    -125.721E-03        -2.37192
           29719         42.1483         41.7687    -172.927E-03        -2.86367
           29720         41.9330         41.6539    -126.329E-03        -2.45334
           29721         41.4231         41.0187    -172.897E-03        -2.95617
           29722         41.1902         40.8921    -126.565E-03        -2.53494
           29723         40.6776         40.2471    -172.277E-03        -3.04837
           29724         40.4255         40.1074    -126.395E-03        -2.61647
           29725         39.9120         39.4539    -171.011E-03        -3.13991
           29726         39.6392         39.2998    -125.779E-03        -2.69762
           29727         39.1266         38.6397    -169.038E-03        -3.23042
           29728         38.8314         38.4697    -124.675E-03        -2.77810
           29729         38.3220         37.8048    -166.291E-03        -3.31948
           29730         38.0027         37.6173    -123.037E-03        -2.85755
           29731         37.4985         36.9497    -162.699E-03        -3.40666
           29732         37.1534         36.7433    -120.813E-03        -2.93561
           29733         36.6567         36.0751    -158.180E-03        -3.49146
           29734         36.2842         35.8481    -117.947E-03        -3.01186
           29735         35.7975         35.1818    -152.649E-03        -3.57335
           29736         35.3958         34.9326    -114.378E-03        -3.08587
           29737         34.9215         34.2707    -146.010E-03        -3.65175
           29738         34.4889         33.9974    -110.040E-03        -3.15715
           29739         34.0298         33.3430    -138.161E-03        -3.72604
           29740         33.5645         33.0438    -104.858E-03        -3.22517
           29741         33.1233         32.3997    -128.989E-03        -3.79553
           29742         32.6237         32.0729    -98.7530E-03        -3.28934
           29743         32.2032         31.4424    -118.373E-03        -3.85947
           29744         31.6676         31.0859    -91.6381E-03        -3.34905
           29745         31.2707         30.4726    -106.180E-03        -3.91705
           29746         30.6977         30.0845    -83.4185E-03        -3.40360
           29747         30.3272         29.4922    -92.2658E-03        -3.96740
           29748         29.7153         29.0704    -73.9910E-03        -3.45225
           29749         29.3741         28.5030    -76.4765E-03        -4.00956
           29750         28.7221         28.0456    -63.2433E-03        -3.49419
           29751         28.4130         27.5074    -58.6446E-03        -4.04250
           29752         27.7199         27.0122    -51.0540E-03        -3.52853
           29753         27.4456         26.5077    -38.5902E-03        -4.06511
           29754         26.7105         25.9727    -37.2914E-03        -3.55432
           29755         26.4735         25.5067    -16.1212E-03        -4.07618
           29756         25.6960         24.9298    -21.8136E-03        -3.57051
           29757         25.4988         24.5072     8.96643E-03        -4.07443
           29758         24.6785         23.8864    -4.46807E-03        -3.57599
           29759         24.5231         23.5125     36.8877E-03        -4.05847
           29760         23.6604         22.8458     14.9077E-03        -3.56954
           29761         23.5487         22.5260     67.8658E-03        -4.02681
           29762         22.6441         21.8116     36.4860E-03        -3.54987
           29763         22.5774         21.5513     102.129E-03        -3.97790
           29764         21.6321         20.7875     60.4465E-03        -3.51557
           29765         21.6116         20.5926     139.901E-03        -3.91008
           29766         20.6270         19.7778     86.9737E-03        -3.46518
           29767         20.6533         19.6539     181.395E-03        -3.82162
           29768         19.6316         18.7869     116.251E-03        -3.39710
           29769         19.7050         18.7397     226.791E-03        -3.71076
           29770         18.6488         17.8196     148.451E-03        -3.30972
           29771         18.7694         17.8546     276.211E-03        -3.57573
           29772         17.6817         16.8808     183.721E-03        -3.20134
           29773         17.8493         17.0033     329.680E-03        -3.41480
           29774         16.7334         15.9758     222.163E-03        -3.07026
           29775         16.9483         16.1905     387.053E-03        -3.22640
           29776         15.8077         15.1100     263.787E-03        -2.91484
           29777         16.0705         15.4208     447.912E-03        -3.00922
           29778         14.9088         14.2887     308.459E-03        -2.73360
           29779         15.2214         14.6988     511.400E-03        -2.76246
           29780         14.0415         13.5171     355.792E-03        -2.52535
           29781         14.4079         14.0282     575.933E-03        -2.48614
           29782         13.2119         12.8004     404.978E-03        -2.28947
           29783         13.6387         13.4126     638.741E-03        -2.18156
           29784         12.4278         12.1427     454.510E-03        -2.02627
           29785         12.9255         12.8542     695.095E-03        -1.85202
           29786         11.6988         11.5475     501.639E-03        -1.73764
           29787         12.2828         12.3548     736.805E-03        -1.50388
           29788         11.0369         11.0168     541.564E-03        -1.42796
           29789         11.7288         11.9157     749.890E-03        -1.14797
           29790         10.4570         10.5511     565.222E-03        -1.10586
           29791         11.2879         11.5402     709.474E-03    -800.898E-03
           29792         9.97740         10.1507     556.697E-03    -785.857E-03
           29793         10.9959         11.2390     572.641E-03    -483.994E-03
           29794         9.62292         9.81762     483.091E-03    -491.419E-03
           29795         10.9080         11.0364     274.519E-03    -214.188E-03
           29796         9.43858         9.56982     288.430E-03    -246.543E-03
           29797         11.0916         10.9596    -259.374E-03     6.59797E-03
           29798         9.48186         9.43132    -98.8595E-03    -67.8673E-03
           29799         82.0798         82.1176         17.9046        -19.5228
           29800         83.5035         84.2105         21.8897        -20.3686
           29801         78.8694         80.7336         24.3819        -18.9423
           29802         82.8172         82.4944         10.6355        -16.5086
           29803         86.8866         86.4316         12.9332        -18.5237
           29804         80.8879         80.6975         6.32655        -12.9265
           29805         84.4533         84.0684         6.56361        -13.8270
           29806         78.0389         78.0004         4.00266        -10.0364
           29807         80.8886         80.7295         3.71422        -10.1940
           29808         75.3288         75.3658         2.65193        -7.90044
           29809         77.3730         77.3219         2.22596        -7.63897
           29810         72.9065         72.9824         1.85319        -6.34394
           29811         74.3509         74.3583         1.45828        -5.92205
           29812         70.8092         70.9005         1.34564        -5.18517
           29813         71.8262         71.8599         1.00906        -4.71335
           29814         69.0045         69.0997         1.01008        -4.30614
           29815         69.7169         69.7624     731.638E-03        -3.83683
           29816         67.4497         67.5426     778.312E-03        -3.62501
           29817         67.9431         67.9925     549.423E-03        -3.18025
           29818         66.1041         66.1916     612.687E-03        -3.08763
           29819         66.4374         66.4866     424.106E-03        -2.67552
           29820         64.9328         65.0135     490.690E-03        -2.65690
           29821         65.1474         65.1943     334.565E-03        -2.27903
           29822         63.9071         63.9803     398.479E-03        -2.30706
           29823         64.0324         64.0760     268.497E-03        -1.96207
           29824         63.0031         63.0689     327.195E-03        -2.01979
           29825         63.0607         63.1005     218.420E-03        -1.70504
           29826         62.2016         62.2600     270.989E-03        -1.78181
           29827         62.2075         62.2432     179.574E-03        -1.49424
           29828         61.4865         61.5380     225.893E-03        -1.58331
           29829         61.4528         61.4845     148.827E-03        -1.31980
           29830         60.8448         60.8897     189.141E-03        -1.41688
           29831         60.7807         60.8085     124.060E-03        -1.17448
           29832         60.2654         60.3040     158.768E-03        -1.27689
           29833         60.1780         60.2022     103.793E-03        -1.05285
           29834         59.7389         59.7718     133.345E-03        -1.15894
           29835         59.6340         59.6547     86.9762E-03    -950.769E-03
           29836         59.2576         59.2850     111.817E-03        -1.05960
           29837         59.1395         59.1569     72.8433E-03    -865.025E-03
           29838         58.8147         58.8370     93.3926E-03    -976.117E-03
           29839         58.6871         58.7014     60.8281E-03    -793.098E-03
           29840         58.4043         58.4219     77.4673E-03    -906.297E-03
           29841         58.2701         58.2815     50.5045E-03    -732.983E-03
           29842         58.0213         58.0345     63.5759E-03    -848.346E-03
           29843         57.8829         57.8916     41.5470E-03    -683.067E-03
           29844         57.6614         57.6704     51.3543E-03    -800.798E-03
           29845         57.5208         57.5269     33.7038E-03    -642.037E-03
           29846         57.3207         57.3257     40.5155E-03    -762.440E-03
           29847         57.1793         57.1829     26.7778E-03    -608.818E-03
           29848         56.9955         56.9968     30.8300E-03    -732.262E-03
           29849         56.8547         56.8561     20.6128E-03    -582.521E-03
           29850         56.6829         56.6807     22.1136E-03    -709.419E-03
           29851         56.5438         56.5429     15.0841E-03    -562.404E-03
           29852         56.3801         56.3744     14.2164E-03    -693.194E-03
           29853         56.2434         56.2404     10.0909E-03    -547.843E-03
           29854         56.0844         56.0754     7.01613E-03    -682.980E-03
           29855         55.9509         55.9459     5.55138E-03    -538.312E-03
           29856         55.7936         55.7814     411.950E-06    -678.260E-03
           29857         55.6639         55.6569     1.39839E-03    -533.365E-03
           29858         55.5056         55.4903    -5.67966E-03    -678.587E-03
           29859         55.3801         55.3712    -2.42344E-03    -532.618E-03
           29860         55.2185         55.2001    -11.3282E-03    -683.576E-03
           29861         55.0974         55.0866    -5.96004E-03    -535.743E-03
           29862         54.9304         54.9090    -16.5919E-03    -692.896E-03
           29863         54.8141         54.8014    -9.24975E-03    -542.455E-03
           29864         54.6397         54.6152    -21.5197E-03    -706.253E-03
           29865         54.5283         54.5137    -12.3247E-03    -552.508E-03
           29866         54.3448         54.3173    -26.1528E-03    -723.394E-03
           29867         54.2384         54.2219    -15.2119E-03    -565.687E-03
           29868         54.0444         54.0138    -30.5259E-03    -744.094E-03
           29869         53.9429         53.9246    -17.9340E-03    -581.801E-03
           29870         53.7370         53.7032    -34.6684E-03    -768.154E-03
           29871         53.6405         53.6201    -20.5104E-03    -600.686E-03
           29872         53.4214         53.3844    -38.6053E-03    -795.397E-03
           29873         53.3297         53.3073    -22.9573E-03    -622.193E-03
           29874         53.0964         53.0560    -42.3573E-03    -825.664E-03
           29875         53.0093         52.9849    -25.2884E-03    -646.189E-03
           29876         52.7609         52.7169    -45.9422E-03    -858.811E-03
           29877         52.6782         52.6515    -27.5151E-03    -672.557E-03
           29878         52.4136         52.3660    -49.3746E-03    -894.708E-03
           29879         52.3351         52.3062    -29.6472E-03    -701.190E-03
           29880         52.0538         52.0023    -52.6665E-03    -933.236E-03
           29881         51.9790         51.9477    -31.6927E-03    -731.988E-03
           29882         51.6803         51.6248    -55.8277E-03    -974.283E-03
           29883         51.6090         51.5751    -33.6580E-03    -764.864E-03
           29884         51.2922         51.2324    -58.8660E-03        -1.01775
           29885         51.2239         51.1874    -35.5484E-03    -799.732E-03
           29886         50.8887         50.8244    -61.7872E-03        -1.06353
           29887         50.8230         50.7836    -37.3679E-03    -836.513E-03
           29888         50.4689         50.3998    -64.5954E-03        -1.11153
           29889         50.4052         50.3629    -39.1195E-03    -875.134E-03
           29890         50.0320         49.9579    -67.2931E-03        -1.16166
           29891         49.9698         49.9243    -40.8051E-03    -915.520E-03
           29892         49.5773         49.4978    -69.8814E-03        -1.21384
           29893         49.5160         49.4670    -42.4257E-03    -957.602E-03
           29894         49.1041         49.0188    -72.3597E-03        -1.26796
           29895         49.0430         48.9903    -43.9815E-03        -1.00131
           29896         48.6117         48.5202    -74.7261E-03        -1.32395
           29897         48.5500         48.4934    -45.4715E-03        -1.04657
           29898         48.0994         48.0013    -76.9772E-03        -1.38170
           29899         48.0365         47.9757    -46.8942E-03        -1.09331
           29900         47.5667         47.4616    -79.1083E-03        -1.44113
           29901         47.5016         47.4363    -48.2471E-03        -1.14147
           29902         47.0130         46.9003    -81.1133E-03        -1.50213
           29903         46.9449         46.8748    -49.5268E-03        -1.19096
           29904         46.4378         46.3171    -82.9844E-03        -1.56459
           29905         46.3658         46.2905    -50.7290E-03        -1.24169
           29906         45.8407         45.7114    -84.7127E-03        -1.62842
           29907         45.7637         45.6828    -51.8487E-03        -1.29360
           29908         45.2212         45.0828    -86.2876E-03        -1.69348
           29909         45.1382         45.0514    -52.8797E-03        -1.34658
           29910         44.5791         44.4309    -87.6966E-03        -1.75964
           29911         44.4888         44.3957    -53.8150E-03        -1.40054
           29912         43.9139         43.7552    -88.9260E-03        -1.82678
           29913         43.8153         43.7154    -54.6465E-03        -1.45537
           29914         43.2255         43.0557    -89.9600E-03        -1.89474
           29915         43.1173         43.0101    -55.3653E-03        -1.51096
           29916         42.5137         42.3320    -90.7809E-03        -1.96336
           29917         42.3945         42.2795    -55.9609E-03        -1.56719
           29918         41.7784         41.5840    -91.3692E-03        -2.03247
           29919         41.6468         41.5234    -56.4220E-03        -1.62391
           29920         41.0195         40.8117    -91.7030E-03        -2.10186
           29921         40.8740         40.7418    -56.7358E-03        -1.68099
           29922         40.2370         40.0149    -91.7583E-03        -2.17134
           29923         40.0762         39.9345    -56.8881E-03        -1.73825
           29924         39.4312         39.1939    -91.5083E-03        -2.24066
           29925         39.2534         39.1015    -56.8632E-03        -1.79553
           29926         38.6023         38.3489    -90.9237E-03        -2.30959
           29927         38.4057         38.2430    -56.6438E-03        -1.85263
           29928         37.7504         37.4800    -89.9724E-03        -2.37785
           29929         37.5334         37.3592    -56.2110E-03        -1.90934
           29930         36.8762         36.5878    -88.6189E-03        -2.44513
           29931         36.6367         36.4504    -55.5437E-03        -1.96543
           29932         35.9800         35.6726    -86.8245E-03        -2.51112
           29933         35.7163         35.5171    -54.6190E-03        -2.02064
           29934         35.0625         34.7353    -84.5466E-03        -2.57545
           29935         34.7727         34.5597    -53.4115E-03        -2.07469
           29936         34.1246         33.7764    -81.7388E-03        -2.63772
           29937         33.8065         33.5791    -51.8935E-03        -2.12729
           29938         33.1671         32.7971    -78.3502E-03        -2.69753
           29939         32.8187         32.5761    -50.0347E-03        -2.17810
           29940         32.1911         31.7984    -74.3251E-03        -2.75439
           29941         31.8102         31.5516    -47.8017E-03        -2.22674
           29942         31.1977         30.7815    -69.6029E-03        -2.80779
           29943         30.7823         30.5070    -45.1580E-03        -2.27283
           29944         30.1884         29.7479    -64.1174E-03        -2.85718
           29945         29.7363         29.4435    -42.0637E-03        -2.31593
           29946         29.1647         28.6994    -57.7961E-03        -2.90196
           29947         28.6738         28.3628    -38.4751E-03        -2.35554
           29948         28.1283         27.6377    -50.5605E-03        -2.94145
           29949         27.5964         27.2667    -34.3443E-03        -2.39116
           29950         27.0811         26.5651    -42.3247E-03        -2.97494
           29951         26.5062         26.1573    -29.6191E-03        -2.42220
           29952         26.0251         25.4840    -32.9958E-03        -3.00163
           29953         25.4054         25.0369    -24.2422E-03        -2.44805
           29954         24.9626         24.3969    -22.4728E-03        -3.02068
           29955         24.2963         23.9082    -18.1512E-03        -2.46801
           29956         23.8961         23.3069    -10.6466E-03        -3.03115
           29957         23.1816         22.7741    -11.2784E-03        -2.48134
           29958         22.8283         22.2173     2.59998E-03        -3.03205
           29959         22.0642         21.6378    -3.54983E-03        -2.48724
           29960         21.7618         21.1315     17.3923E-03        -3.02228
           29961         20.9473         20.5030     5.11434E-03        -2.48482
           29962         20.6999         20.0537     33.8633E-03        -3.00066
           29963         19.8343         19.3736     14.8002E-03        -2.47311
           29964         19.6456         18.9880     52.1521E-03        -2.96595
           29965         18.7289         18.2542     25.5997E-03        -2.45109
           29966         18.6023         17.9392     72.4014E-03        -2.91679
           29967         17.6350         17.1494     37.6100E-03        -2.41762
           29968         17.5735         16.9123     94.7531E-03        -2.85175
           29969         16.5567         16.0645     50.9319E-03        -2.37151
           29970         16.5630         15.9126     119.340E-03        -2.76935
           29971         15.4985         15.0052     65.6672E-03        -2.31148
           29972         15.5746         14.9459     146.277E-03        -2.66803
           29973         14.4650         13.9776     81.9134E-03        -2.23616
           29974         14.6126         14.0182     175.635E-03        -2.54623
           29975         13.4610         12.9882     99.7556E-03        -2.14415
           29976         13.6814         13.1358     207.415E-03        -2.40244
           29977         12.4919         12.0440     119.252E-03        -2.03401
           29978         12.7863         12.3050     241.492E-03        -2.23529
           29979         11.5630         11.1521     140.411E-03        -1.90435
           29980         11.9329         11.5320     277.527E-03        -2.04369
           29981         10.6804         10.3199     163.149E-03        -1.75389
           29982         11.1285         10.8230     314.817E-03        -1.82710
           29983         9.85110         9.55475     187.221E-03        -1.58164
           29984         10.3816         10.1830     352.033E-03        -1.58595
           29985         9.08290         8.86349     212.099E-03        -1.38716
           29986         9.70287         9.61616     386.787E-03        -1.32224
           29987         8.38527         8.25205     236.739E-03        -1.17102
           29988         9.10471         9.12451     414.606E-03        -1.04086
           29989         7.76913         7.72454     259.222E-03    -935.585E-03
           29990         8.60051         8.70735     427.756E-03    -751.121E-03
           29991         7.24639         7.28189     275.559E-03    -686.769E-03
           29992         8.20592         8.36202     409.160E-03    -471.746E-03
           29993         6.82714         6.92036     278.937E-03    -436.229E-03
           29994         7.93525         8.08266     325.435E-03    -233.258E-03
           29995         6.51719         6.62756     248.687E-03    -212.593E-03
           29996         7.84744         7.89335     94.7884E-03    -74.0588E-03
           29997         6.34580         6.41216     136.744E-03    -61.9333E-03
           29998         8.03687         7.84059    -379.135E-03    -324.429E-06
           29999         6.38881         6.29496    -183.723E-03    -3.74451E-03
           30000         94.5139         93.6635         14.0311        -20.5974
           30001         97.5171         96.8349         18.4321        -22.8876
           30002         86.5625         88.5049         28.1702        -21.2883
           30003         89.3176         88.9462         6.16191        -13.8592
           30004         97.2946         96.7253         7.22644        -15.8429
           30005         83.5725         83.4473         2.86677        -9.16320
           30006         88.6063         88.2492         1.78434        -8.48903
           30007         79.0233         79.0096         1.68029        -6.63567
           30008         81.8161         81.7309     998.397E-03        -5.61370
           30009         75.3511         75.3748         1.05438        -4.99293
           30010         77.0757         77.0264     514.079E-03        -3.95419
           30011         72.4454         72.4834     714.019E-03        -3.90462
           30012         73.5065         73.4893     327.999E-03        -2.97340
           30013         70.0876         70.1297     508.458E-03        -3.13561
           30014         70.7501         70.7454     220.315E-03        -2.32416
           30015         68.1480         68.1897     376.580E-03        -2.57275
           30016         68.5509         68.5529     157.662E-03        -1.87105
           30017         66.5274         66.5667     287.605E-03        -2.14684
           30018         66.7560         66.7613     117.344E-03        -1.53913
           30019         65.1560         65.1922     224.952E-03        -1.81643
           30020         65.2638         65.2706     90.0780E-03        -1.28777
           30021         63.9825         64.0153     179.318E-03        -1.55481
           30022         64.0047         64.0121     70.7918E-03        -1.09227
           30023         62.9685         62.9978     145.095E-03        -1.34428
           30024         62.9290         62.9364     56.6573E-03    -937.104E-03
           30025         62.0845         62.1106     118.793E-03        -1.17264
           30026         62.0004         62.0074     45.9919E-03    -811.950E-03
           30027         61.3077         61.3307     98.1435E-03        -1.03127
           30028         61.1911         61.1977     37.7425E-03    -709.742E-03
           30029         60.6200         60.6401     81.6284E-03    -913.936E-03
           30030         60.4800         60.4859     31.2257E-03    -625.472E-03
           30031         60.0067         60.0241     68.2011E-03    -815.993E-03
           30032         59.8502         59.8554     25.9818E-03    -555.503E-03
           30033         59.4559         59.4709     57.1231E-03    -733.942E-03
           30034         59.2881         59.2927     21.6934E-03    -497.130E-03
           30035         58.9578         58.9705     47.8619E-03    -665.093E-03
           30036         58.7827         58.7866     18.1352E-03    -448.305E-03
           30037         58.5042         58.5147     40.0261E-03    -607.349E-03
           30038         58.3249         58.3282     15.1445E-03    -407.450E-03
           30039         58.0879         58.0965     33.3230E-03    -559.051E-03
           30040         57.9070         57.9097     12.6007E-03    -373.329E-03
           30041         57.7030         57.7097     27.5307E-03    -518.873E-03
           30042         57.5225         57.5246     10.4136E-03    -344.964E-03
           30043         57.3443         57.3494     22.4782E-03    -485.741E-03
           30044         57.1659         57.1674     8.51441E-03    -321.567E-03
           30045         57.0074         57.0108     18.0323E-03    -458.781E-03
           30046         56.8323         56.8333     6.84983E-03    -302.503E-03
           30047         56.6882         56.6902     14.0880E-03    -437.271E-03
           30048         56.5175         56.5180     5.37827E-03    -287.248E-03
           30049         56.3832         56.3838     10.5617E-03    -420.610E-03
           30050         56.2178         56.2179     4.06682E-03    -275.372E-03
           30051         56.0894         56.0886     7.38633E-03    -408.299E-03
           30052         55.9299         55.9295     2.88915E-03    -266.516E-03
           30053         55.8038         55.8018     4.50731E-03    -399.915E-03
           30054         55.6509         55.6500     1.82407E-03    -260.380E-03
           30055         55.5241         55.5208     1.88018E-03    -395.099E-03
           30056         55.3780         55.3766     854.302E-06    -256.708E-03
           30057         55.2477         55.2432    -531.668E-06    -393.547E-03
           30058         55.1089         55.1071    -34.2821E-06    -255.287E-03
           30059         54.9727         54.9670    -2.75856E-03    -394.997E-03
           30060         54.8413         54.8391    -853.354E-06    -255.931E-03
           30061         54.6970         54.6902    -4.82571E-03    -399.224E-03
           30062         54.5733         54.5706    -1.61259E-03    -258.482E-03
           30063         54.4189         54.4110    -6.75424E-03    -406.032E-03
           30064         54.3029         54.2998    -2.32007E-03    -262.804E-03
           30065         54.1367         54.1277    -8.56188E-03    -415.252E-03
           30066         54.0285         54.0250    -2.98256E-03    -268.778E-03
           30067         53.8489         53.8386    -10.2635E-03    -426.735E-03
           30068         53.7483         53.7444    -3.60576E-03    -276.302E-03
           30069         53.5538         53.5425    -11.8719E-03    -440.350E-03
           30070         53.4609         53.4566    -4.19447E-03    -285.285E-03
           30071         53.2503         53.2378    -13.3975E-03    -455.982E-03
           30072         53.1649         53.1601    -4.75274E-03    -295.647E-03
           30073         52.9370         52.9232    -14.8494E-03    -473.528E-03
           30074         52.8590         52.8536    -5.28399E-03    -307.318E-03
           30075         52.6126         52.5975    -16.2351E-03    -492.897E-03
           30076         52.5417         52.5359    -5.79113E-03    -320.236E-03
           30077         52.2760         52.2596    -17.5611E-03    -514.004E-03
           30078         52.2120         52.2056    -6.27657E-03    -334.343E-03
           30079         51.9260         51.9083    -18.8326E-03    -536.776E-03
           30080         51.8686         51.8617    -6.74235E-03    -349.589E-03
           30081         51.5617         51.5425    -20.0540E-03    -561.143E-03
           30082         51.5105         51.5030    -7.19015E-03    -365.928E-03
           30083         51.1819         51.1612    -21.2289E-03    -587.041E-03
           30084         51.1366         51.1285    -7.62135E-03    -383.318E-03
           30085         50.7857         50.7634    -22.3599E-03    -614.411E-03
           30086         50.7459         50.7372    -8.03703E-03    -401.718E-03
           30087         50.3722         50.3482    -23.4493E-03    -643.197E-03
           30088         50.3375         50.3280    -8.43805E-03    -421.092E-03
           30089         49.9406         49.9147    -24.4984E-03    -673.343E-03
           30090         49.9103         49.9000    -8.82501E-03    -441.403E-03
           30091         49.4898         49.4620    -25.5081E-03    -704.799E-03
           30092         49.4635         49.4524    -9.19830E-03    -462.619E-03
           30093         49.0192         48.9893    -26.4788E-03    -737.512E-03
           30094         48.9962         48.9843    -9.55813E-03    -484.706E-03
           30095         48.5279         48.4958    -27.4102E-03    -771.430E-03
           30096         48.5077         48.4948    -9.90448E-03    -507.630E-03
           30097         48.0152         47.9808    -28.3016E-03    -806.502E-03
           30098         47.9971         47.9831    -10.2372E-03    -531.358E-03
           30099         47.4805         47.4435    -29.1517E-03    -842.673E-03
           30100         47.4636         47.4486    -10.5558E-03    -555.856E-03
           30101         46.9230         46.8833    -29.9587E-03    -879.889E-03
           30102         46.9066         46.8904    -10.8598E-03    -581.089E-03
           30103         46.3421         46.2995    -30.7202E-03    -918.091E-03
           30104         46.3254         46.3079    -11.1484E-03    -607.020E-03
           30105         45.7373         45.6915    -31.4334E-03    -957.219E-03
           30106         45.7194         45.7005    -11.4208E-03    -633.611E-03
           30107         45.1080         45.0589    -32.0949E-03    -997.206E-03
           30108         45.0879         45.0675    -11.6756E-03    -660.820E-03
           30109         44.4537         44.4010    -32.7008E-03        -1.03798
           30110         44.4304         44.4084    -11.9117E-03    -688.603E-03
           30111         43.7740         43.7175    -33.2463E-03        -1.07948
           30112         43.7464         43.7227    -12.1274E-03    -716.914E-03
           30113         43.0686         43.0079    -33.7263E-03        -1.12160
           30114         43.0355         43.0100    -12.3209E-03    -745.699E-03
           30115         42.3370         42.2719    -34.1348E-03        -1.16427
           30116         42.2972         42.2697    -12.4902E-03    -774.903E-03
           30117         41.5791         41.5092    -34.4652E-03        -1.20739
           30118         41.5313         41.5016    -12.6331E-03    -804.466E-03
           30119         40.7946         40.7197    -34.7102E-03        -1.25085
           30120         40.7374         40.7054    -12.7470E-03    -834.319E-03
           30121         39.9834         39.9031    -34.8616E-03        -1.29453
           30122         39.9154         39.8809    -12.8289E-03    -864.390E-03
           30123         39.1456         39.0594    -34.9101E-03        -1.33832
           30124         39.0652         39.0280    -12.8759E-03    -894.598E-03
           30125         38.2811         38.1887    -34.8457E-03        -1.38207
           30126         38.1867         38.1466    -12.8842E-03    -924.855E-03
           30127         37.3901         37.2911    -34.6575E-03        -1.42563
           30128         37.2799         37.2367    -12.8502E-03    -955.064E-03
           30129         36.4728         36.3668    -34.3330E-03        -1.46883
           30130         36.3451         36.2986    -12.7694E-03    -985.118E-03
           30131         35.5297         35.4161    -33.8589E-03        -1.51150
           30132         35.3825         35.3324    -12.6373E-03        -1.01490
           30133         34.5611         34.4396    -33.2205E-03        -1.55343
           30134         34.3925         34.3386    -12.4485E-03        -1.04428
           30135         33.5678         33.4379    -32.4014E-03        -1.59439
           30136         33.3756         33.3177    -12.1974E-03        -1.07312
           30137         32.5506         32.4116    -31.3839E-03        -1.63416
           30138         32.3325         32.2703    -11.8776E-03        -1.10126
           30139         31.5103         31.3617    -30.1485E-03        -1.67247
           30140         31.2641         31.1972    -11.4823E-03        -1.12853
           30141         30.4480         30.2894    -28.6738E-03        -1.70902
           30142         30.1714         30.0995    -11.0037E-03        -1.15474
           30143         29.3651         29.1959    -26.9363E-03        -1.74350
           30144         29.0555         28.9783    -10.4337E-03        -1.17969
           30145         28.2630         28.0827    -24.9103E-03        -1.77556
           30146         27.9178         27.8351    -9.76282E-03        -1.20314
           30147         27.1434         26.9515    -22.5677E-03        -1.80483
           30148         26.7601         26.6714    -8.98106E-03        -1.22485
           30149         26.0083         25.8043    -19.8776E-03        -1.83087
           30150         25.5841         25.4891    -8.07723E-03        -1.24454
           30151         24.8599         24.6434    -16.8063E-03        -1.85324
           30152         24.3920         24.2904    -7.03906E-03        -1.26192
           30153         23.7006         23.4713    -13.3169E-03        -1.87144
           30154         23.1863         23.0777    -5.85304E-03        -1.27664
           30155         22.5333         22.2908    -9.36894E-03        -1.88491
           30156         21.9697         21.8539    -4.50428E-03        -1.28835
           30157         21.3608         21.1052    -4.91856E-03        -1.89306
           30158         20.7453         20.6219    -2.97644E-03        -1.29664
           30159         20.1867         19.9180     82.0931E-06        -1.89524
           30160         19.5166         19.3854    -1.25150E-03        -1.30109
           30161         19.0146         18.7333     5.68489E-03        -1.89074
           30162         18.2874         18.1484     690.286E-06        -1.30120
           30163         17.8486         17.5554     11.9458E-03        -1.87878
           30164         17.0620         16.9151     2.87058E-03        -1.29644
           30165         16.6931         16.3892     18.9245E-03        -1.85851
           30166         15.8452         15.6905     5.31305E-03        -1.28625
           30167         15.5529         15.2401     26.6845E-03        -1.82904
           30168         14.6421         14.4800     8.04340E-03        -1.26999
           30169         14.4331         14.1140     35.2912E-03        -1.78937
           30170         13.4585         13.2896     11.0894E-03        -1.24697
           30171         13.3392         13.0172     44.8106E-03        -1.73845
           30172         12.3005         12.1260     14.4805E-03        -1.21644
           30173         12.2770         11.9568     55.3058E-03        -1.67518
           30174         11.1750         10.9964     18.2473E-03        -1.17760
           30175         11.2528         10.9402     66.8307E-03        -1.59838
           30176         10.0890         9.90870     22.4208E-03        -1.12956
           30177         10.2731         9.97545     79.4203E-03        -1.50686
           30178         9.05045         8.87163     27.0298E-03        -1.07142
           30179         9.34476         9.07110     93.0734E-03        -1.39944
           30180         8.06742         7.89445     32.0975E-03        -1.00220
           30181         8.47537         8.23591     107.724E-03        -1.27506
           30182         7.14860         6.98711     37.6344E-03    -920.928E-03
           30183         7.67311         7.47881     123.185E-03        -1.13287
           30184         6.30312         6.16002     43.6289E-03    -826.691E-03
           30185         6.94727         6.80844     139.077E-03    -972.493E-03
           30186         5.54072         5.42391     50.0165E-03    -718.704E-03
           30187         6.30859         6.23257     154.611E-03    -794.380E-03
           30188         4.87199         4.78925     56.6780E-03    -596.551E-03
           30189         5.76921         5.75692     168.434E-03    -600.809E-03
           30190         4.30869         4.26556     63.2639E-03    -460.317E-03
           30191         5.34129         5.38361     177.627E-03    -396.142E-03
           30192         3.86339         3.85964     69.4268E-03    -312.034E-03
           30193         5.03120         5.10622     177.398E-03    -194.866E-03
           30194         3.54630         3.57279     74.1038E-03    -153.444E-03
           30195         4.82903         4.90488     155.551E-03    -10.5417E-03
           30196         3.35373         3.39029     74.4106E-03    -4.16185E-03
           30197         4.73400         4.75859     50.1662E-03     18.5632E-03
           30198         3.24015         3.26418     74.5300E-03     155.242E-03
           30199         4.89210         4.69345    -375.066E-03     32.4938E-03
           30200         3.03048         2.96028    -133.513E-03    -15.1421E-03
           30201         105.177         104.834         2.66022        -10.5430
           30202         135.883         140.009         16.6522        -17.4727
           30203         129.136         129.902         32.3384        -31.3932
           30204         91.5099         91.2150     243.410E-03        -5.00275
           30205         99.9338         97.9254        -3.88904     686.465E-03
           30206         82.9995         83.0636     521.955E-03        -3.28773
           30207         85.6795         86.0119     678.243E-03    -520.409E-03
           30208         77.5916         77.6107     229.552E-03        -2.22069
           30209         79.0601         78.8597    -398.957E-03     99.5846E-03
           30210         73.7146         73.7384     158.988E-03        -1.65325
           30211         74.3577         74.3360    -43.2843E-03    -2.65247E-03
           30212         70.7778         70.7937     100.582E-03        -1.27258
           30213         71.0799         71.0410    -77.8021E-03     27.2399E-03
           30214         68.4695         68.4830     72.3277E-03        -1.01576
           30215         68.5557         68.5352    -40.8873E-03     17.1131E-03
           30216         66.6049         66.6159     52.8530E-03    -829.021E-03
           30217         66.5646         66.5482    -32.6204E-03     16.3240E-03
           30218         65.0674         65.0766     40.3314E-03    -689.446E-03
           30219         64.9451         64.9333    -23.6483E-03     13.5111E-03
           30220         63.7787         63.7865     31.4433E-03    -581.726E-03
           30221         63.6033         63.5941    -18.4090E-03     11.7427E-03
           30222         62.6843         62.6909     25.0334E-03    -496.826E-03
           30223         62.4739         62.4667    -14.4557E-03     10.1739E-03
           30224         61.7443         61.7499     20.2295E-03    -428.711E-03
           30225         61.5113         61.5055    -11.6013E-03     8.93209E-03
           30226         60.9291         60.9340     16.5464E-03    -373.320E-03
           30227         60.6821         60.6774    -9.42761E-03     7.90264E-03
           30228         60.2161         60.2202     13.6569E-03    -327.797E-03
           30229         59.9612         59.9573    -7.74670E-03     7.04972E-03
           30230         59.5873         59.5909     11.3472E-03    -290.088E-03
           30231         59.3290         59.3258    -6.41648E-03     6.33223E-03
           30232         59.0286         59.0316     9.46959E-03    -258.676E-03
           30233         58.7703         58.7676    -5.34570E-03     5.72234E-03
           30234         58.5283         58.5309     7.92029E-03    -232.420E-03
           30235         58.2726         58.2704    -4.46975E-03     5.19799E-03
           30236         58.0771         58.0792     6.62465E-03    -210.446E-03
           30237         57.8258         57.8240    -3.74303E-03     4.74234E-03
           30238         57.6668         57.6686     5.52791E-03    -192.074E-03
           30239         57.4216         57.4200    -3.13235E-03     4.34232E-03
           30240         57.2908         57.2923     4.58915E-03    -176.766E-03
           30241         57.0528         57.0515    -2.61317E-03     3.98768E-03
           30242         56.9433         56.9445     3.77738E-03    -164.095E-03
           30243         56.7135         56.7124    -2.16705E-03     3.67031E-03
           30244         56.6193         56.6202     3.06872E-03    -153.713E-03
           30245         56.3984         56.3975    -1.77991E-03     3.38375E-03
           30246         56.3146         56.3153     2.44460E-03    -145.337E-03
           30247         56.1032         56.1024    -1.44087E-03     3.12275E-03
           30248         56.0253         56.0257     1.89039E-03    -138.736E-03
           30249         55.8237         55.8232    -1.14140E-03     2.88308E-03
           30250         55.7480         55.7482     1.39443E-03    -133.715E-03
           30251         55.5567         55.5563    -874.772E-06     2.66122E-03
           30252         55.4797         55.4797     947.346E-06    -130.113E-03
           30253         55.2989         55.2986    -635.587E-06     2.45430E-03
           30254         55.2176         55.2175     541.547E-06    -127.795E-03
           30255         55.0476         55.0474    -419.501E-06     2.25987E-03
           30256         54.9594         54.9590     170.828E-06    -126.645E-03
           30257         54.8001         54.8000    -222.974E-06     2.07592E-03
           30258         54.7027         54.7022    -169.917E-06    -126.565E-03
           30259         54.5544         54.5543    -43.1162E-06     1.90069E-03
           30260         54.4456         54.4449    -484.917E-06    -127.471E-03
           30261         54.3081         54.3082     122.470E-06     1.73270E-03
           30262         54.1860         54.1851    -777.693E-06    -129.290E-03
           30263         54.0594         54.0595     275.759E-06     1.57067E-03
           30264         53.9222         53.9212    -1.05119E-03    -131.960E-03
           30265         53.8064         53.8066     418.413E-06     1.41347E-03
           30266         53.6526         53.6514    -1.30788E-03    -135.427E-03
           30267         53.5475         53.5478     551.812E-06     1.26013E-03
           30268         53.3755         53.3742    -1.54986E-03    -139.643E-03
           30269         53.2811         53.2814     677.127E-06     1.10977E-03
           30270         53.0897         53.0882    -1.77887E-03    -144.565E-03
           30271         53.0056         53.0060     795.336E-06     961.598E-06
           30272         52.7936         52.7920    -1.99642E-03    -150.158E-03
           30273         52.7198         52.7202     907.273E-06     814.941E-06
           30274         52.4860         52.4842    -2.20375E-03    -156.388E-03
           30275         52.4222         52.4227     1.01364E-03     669.163E-06
           30276         52.1656         52.1636    -2.40192E-03    -163.225E-03
           30277         52.1115         52.1121     1.11502E-03     523.653E-06
           30278         51.8312         51.8291    -2.59183E-03    -170.645E-03
           30279         51.7866         51.7872     1.21191E-03     377.901E-06
           30280         51.4818         51.4795    -2.77421E-03    -178.622E-03
           30281         51.4463         51.4470     1.30474E-03     231.434E-06
           30282         51.1161         51.1136    -2.94967E-03    -187.136E-03
           30283         51.0895         51.0902     1.39385E-03     83.7408E-06
           30284         50.7332         50.7305    -3.11871E-03    -196.165E-03
           30285         50.7150         50.7158     1.47951E-03    -65.5763E-06
           30286         50.3321         50.3292    -3.28170E-03    -205.691E-03
           30287         50.3219         50.3227     1.56196E-03    -216.953E-06
           30288         49.9117         49.9086    -3.43894E-03    -215.695E-03
           30289         49.9092         49.9100     1.64136E-03    -370.745E-06
           30290         49.4712         49.4679    -3.59063E-03    -226.162E-03
           30291         49.4758         49.4767     1.71785E-03    -527.360E-06
           30292         49.0097         49.0061    -3.73689E-03    -237.074E-03
           30293         49.0209         49.0218     1.79150E-03    -687.122E-06
           30294         48.5262         48.5224    -3.87775E-03    -248.415E-03
           30295         48.5435         48.5444     1.86236E-03    -850.432E-06
           30296         48.0200         48.0159    -4.01318E-03    -260.168E-03
           30297         48.0427         48.0437     1.93044E-03    -1.01752E-03
           30298         47.4903         47.4859    -4.14306E-03    -272.317E-03
           30299         47.5178         47.5188     1.99568E-03    -1.18880E-03
           30300         46.9362         46.9315    -4.26721E-03    -284.845E-03
           30301         46.9679         46.9689     2.05804E-03    -1.36455E-03
           30302         46.3571         46.3521    -4.38535E-03    -297.734E-03
           30303         46.3923         46.3933     2.11738E-03    -1.54506E-03
           30304         45.7523         45.7469    -4.49716E-03    -310.965E-03
           30305         45.7901         45.7912     2.17357E-03    -1.73061E-03
           30306         45.1211         45.1153    -4.60220E-03    -324.519E-03
           30307         45.1607         45.1618     2.22642E-03    -1.92149E-03
           30308         44.4629         44.4567    -4.70001E-03    -338.374E-03
           30309         44.5035         44.5046     2.27571E-03    -2.11798E-03
           30310         43.7771         43.7705    -4.78998E-03    -352.509E-03
           30311         43.8178         43.8189     2.32116E-03    -2.32030E-03
           30312         43.0633         43.0562    -4.87146E-03    -366.897E-03
           30313         43.1029         43.1041     2.36248E-03    -2.52870E-03
           30314         42.3209         42.3133    -4.94368E-03    -381.514E-03
           30315         42.3585         42.3597     2.39930E-03    -2.74338E-03
           30316         41.5496         41.5414    -5.00578E-03    -396.328E-03
           30317         41.5840         41.5852     2.43124E-03    -2.96456E-03
           30318         40.7489         40.7402    -5.05682E-03    -411.309E-03
           30319         40.7789         40.7802     2.45784E-03    -3.19240E-03
           30320         39.9187         39.9093    -5.09570E-03    -426.422E-03
           30321         39.9430         39.9443     2.47859E-03    -3.42709E-03
           30322         39.0586         39.0486    -5.12124E-03    -441.629E-03
           30323         39.0760         39.0772     2.49296E-03    -3.66868E-03
           30324         38.1687         38.1579    -5.13210E-03    -456.887E-03
           30325         38.1775         38.1788     2.50030E-03    -3.91732E-03
           30326         37.2488         37.2372    -5.12683E-03    -472.150E-03
           30327         37.2476         37.2488     2.49993E-03    -4.17303E-03
           30328         36.2989         36.2866    -5.10379E-03    -487.367E-03
           30329         36.2861         36.2873     2.49110E-03    -4.43570E-03
           30330         35.3194         35.3061    -5.06120E-03    -502.483E-03
           30331         35.2931         35.2943     2.47297E-03    -4.70540E-03
           30332         34.3103         34.2961    -4.99711E-03    -517.436E-03
           30333         34.2688         34.2700     2.44463E-03    -4.98188E-03
           30334         33.2722         33.2570    -4.90931E-03    -532.159E-03
           30335         33.2135         33.2147     2.40505E-03    -5.26500E-03
           30336         32.2056         32.1893    -4.79545E-03    -546.577E-03
           30337         32.1277         32.1289     2.35313E-03    -5.55429E-03
           30338         31.1112         31.0937    -4.65290E-03    -560.608E-03
           30339         31.0119         31.0131     2.28765E-03    -5.84948E-03
           30340         29.9899         29.9712    -4.47877E-03    -574.163E-03
           30341         29.8669         29.8680     2.20726E-03    -6.14981E-03
           30342         28.8428         28.8227    -4.26990E-03    -587.141E-03
           30343         28.6936         28.6947     2.11051E-03    -6.45466E-03
           30344         27.6710         27.6495    -4.02278E-03    -599.436E-03
           30345         27.4932         27.4942     1.99577E-03    -6.76307E-03
           30346         26.4762         26.4531    -3.73361E-03    -610.925E-03
           30347         26.2670         26.2679     1.86130E-03    -7.07373E-03
           30348         25.2600         25.2353    -3.39816E-03    -621.480E-03
           30349         25.0166         25.0174     1.70514E-03    -7.38534E-03
           30350         24.0245         23.9981    -3.01180E-03    -630.953E-03
           30351         23.7439         23.7447     1.52518E-03    -7.69600E-03
           30352         22.7720         22.7438    -2.56943E-03    -639.187E-03
           30353         22.4511         22.4518     1.31910E-03    -8.00362E-03
           30354         21.5051         21.4749    -2.06545E-03    -646.007E-03
           30355         21.1407         21.1413     1.08436E-03    -8.30546E-03
           30356         20.2268         20.1946    -1.49369E-03    -651.219E-03
           30357         19.8156         19.8160     818.152E-06    -8.59831E-03
           30358         18.9406         18.9062    -847.386E-06    -654.615E-03
           30359         18.4789         18.4792     517.488E-06    -8.87817E-03
           30360         17.6502         17.6136    -119.100E-06    -655.960E-03
           30361         17.1345         17.1346     178.986E-06    -9.14034E-03
           30362         16.3600         16.3210     699.311E-06    -655.001E-03
           30363         15.7865         15.7864    -200.887E-06    -9.37882E-03
           30364         15.0747         15.0332     1.61676E-03    -651.459E-03
           30365         14.4396         14.4393    -626.069E-06    -9.58647E-03
           30366         13.7997         13.7557     2.64292E-03    -645.025E-03
           30367         13.0992         13.0987    -1.10074E-03    -9.75454E-03
           30368         12.5410         12.4945     3.78829E-03    -635.365E-03
           30369         11.7712         11.7704    -1.62936E-03    -9.87220E-03
           30370         11.3052         11.2563     5.06406E-03    -622.112E-03
           30371         10.4624         10.4612    -2.21667E-03    -9.92605E-03
           30372         10.0997         10.0484     6.48198E-03    -604.867E-03
           30373         9.18012         9.17867    -2.86738E-03    -9.89944E-03
           30374         8.93243         8.87915     8.05410E-03    -583.196E-03
           30375         7.93285         7.93104    -3.58632E-03    -9.77150E-03
           30376         7.81235         7.75752     9.79206E-03    -556.635E-03
           30377         6.72986         6.72765    -4.37777E-03    -9.51573E-03
           30378         6.74911         6.69349     11.7063E-03    -524.688E-03
           30379         5.58153         5.57889    -5.24521E-03    -9.09871E-03
           30380         5.75318         5.69794     13.8030E-03    -486.840E-03
           30381         4.49937         4.49625    -6.18970E-03    -8.47653E-03
           30382         4.83577         4.78265     16.0852E-03    -442.571E-03
           30383         3.49611         3.49247    -7.21054E-03    -7.59460E-03
           30384         4.00883         3.96032     18.5297E-03    -391.393E-03
           30385         2.58575         2.58157    -8.29330E-03    -6.37025E-03
           30386         3.28481         3.24433     21.1407E-03    -332.881E-03
           30387         1.78362         1.77887    -9.44048E-03    -4.73107E-03
           30388         2.67688         2.64843     23.6886E-03    -266.887E-03
           30389         1.10631         1.10100    -10.5214E-03    -2.42258E-03
           30390         2.19856         2.18610     26.6093E-03    -193.290E-03
           30391     571.462E-03     565.466E-03    -11.8086E-03     323.784E-06
           30392         1.86611         1.86919     27.4122E-03    -113.956E-03
           30393     197.613E-03     191.234E-03    -11.7609E-03     5.56720E-03
           30394         1.68917         1.70558     34.6561E-03    -26.9478E-03
           30395     18.5312E-03    -5.83410E-03    -15.4894E-03     7.29873E-03
           30396         1.69112         1.69678     15.9997E-03     50.4332E-03
           30397     59.1240E-03     4.08050E-03    -1.37902E-03     34.0170E-03
           30398         1.73935         1.78812     183.123E-03     176.966E-03
           30399     233.123E-03     202.185E-03    -50.0455E-03    -16.7806E-03
           30400         2.08536         1.84242    -421.403E-03     8.86072E-03
           30401     983.879E-03     880.073E-03     46.2381E-03     278.115E-03


  Minimum            18.5311E-03    -52.1495E-03        -9.69921        -43.7617
         At Node           10491              98           10102           10101

  Maximum                174.289         174.747         47.2840         43.7617
         At Node           10101           10101            5151               1

           Total     1.92641E+06     1.93096E+06     90.6841E+03     1.74062E-03


